c completeness certificate formula, level 3
c encoding sha256 d4a1e80102921a3f379619582a576421692fdefb19ee12a5b6d360499709fbde
p cnf 10 261
-8 -9 -10 0
-8 9 -10 0
-6 -7 -8 -9 -10 0
-6 -7 -8 -9 10 0
-6 -7 8 -9 -10 0
-6 -7 8 -9 10 0
-6 -7 8 9 10 0
-6 7 -8 -9 -10 0
-6 7 -8 -9 10 0
-6 7 8 -9 -10 0
-6 7 8 9 -10 0
-5 -6 -7 -8 -9 -10 0
-5 -6 -7 -8 -9 10 0
-5 -6 -7 -8 9 -10 0
-5 -6 -7 -8 9 10 0
-5 -6 7 -8 -9 -10 0
-5 -6 7 -8 -9 10 0
-5 -6 7 -8 9 -10 0
-5 -6 7 8 9 10 0
-5 6 -7 -8 -9 -10 0
-5 6 -7 -8 -9 10 0
-5 6 -7 -8 9 -10 0
-5 6 -7 8 9 10 0
-5 6 7 -8 -9 -10 0
-5 6 7 -8 9 10 0
-5 6 7 8 -9 10 0
-3 -5 -6 -8 0
-3 -5 -6 8 0
-3 -4 -6 -7 -8 -9 0
-3 -4 -6 -7 -8 9 0
-3 -4 -6 -7 8 -9 0
-3 -4 -6 -7 8 9 0
-3 -4 -5 -6 -7 -8 -9 0
-3 -4 -5 -6 -7 -8 9 0
-3 -4 -5 -6 -7 8 -9 0
-3 -4 -5 -6 -7 8 9 0
-3 -4 -5 -6 7 -8 -9 0
-3 -4 -5 -6 7 -8 9 0
-3 -4 -5 -6 7 8 -9 0
-3 -4 -5 -6 7 8 9 0
-3 -4 -5 6 7 8 9 0
-3 -4 5 -6 -7 -8 -9 0
-3 -4 5 -6 -7 -8 9 0
-3 -4 5 -6 -7 8 -9 0
-3 -4 5 -6 -7 8 9 0
-3 -4 5 -6 7 -8 -9 0
-3 -4 5 -6 7 -8 9 0
-3 -4 5 -6 7 8 -9 0
-3 -4 5 6 -7 8 9 0
-3 -4 5 6 7 -8 9 0
-3 -4 5 6 7 8 -9 0
-3 -4 6 -7 -8 -9 0
-3 -4 6 -7 -8 9 0
-3 -4 6 -7 8 -9 0
-3 -4 6 -7 8 9 0
-3 -4 6 7 8 9 0
-3 4 -6 -7 -8 -9 0
-3 4 -6 -7 -8 9 0
-3 4 -6 -7 8 -9 0
-3 4 -6 7 -8 9 0
-3 4 -5 -6 -7 -8 -9 0
-3 4 -5 -6 -7 -8 9 0
-3 4 -5 -6 -7 8 -9 0
-3 4 -5 -6 -7 8 9 0
-3 4 -5 -6 7 -8 -9 0
-3 4 -5 -6 7 -8 9 0
-3 4 -5 -6 7 8 -9 0
-3 4 -5 6 -7 8 9 0
-3 4 -5 6 7 -8 9 0
-3 4 -5 6 7 8 -9 0
-3 4 5 -6 -7 -8 -9 0
-3 4 5 -6 -7 -8 9 0
-3 4 5 -6 -7 8 -9 0
-3 4 5 -6 7 -8 -9 0
-3 4 5 6 -7 -8 9 0
-3 4 5 6 -7 8 -9 0
-3 4 5 6 7 -8 -9 0
-3 4 6 -7 -8 -9 0
-3 4 6 -7 8 -9 0
-3 4 6 7 8 -9 0
-3 5 6 -8 0
-1 -3 0
-1 -2 0
-1 -2 -3 -4 0
-1 -2 -3 -4 -6 -7 0
-1 -2 -3 -4 -6 7 0
-1 -2 -3 -4 -5 -6 -7 0
-1 -2 -3 -4 -5 -6 7 0
-1 -2 -3 -4 -5 6 -7 0
-1 -2 -3 -4 -5 6 7 0
-1 -2 -3 -4 5 -6 -7 0
-1 -2 -3 -4 5 -6 7 0
-1 -2 -3 -4 5 6 -7 0
-1 -2 -3 -4 5 6 7 0
-1 -2 -3 -4 6 -7 0
-1 -2 -3 -4 6 7 0
-1 -2 -3 4 0
-1 -2 -3 4 -5 -6 -7 0
-1 -2 -3 4 -5 -6 7 0
-1 -2 -3 4 -5 6 -7 0
-1 -2 -3 4 -5 6 7 0
-1 -2 -3 4 5 -6 -7 0
-1 -2 -3 4 5 -6 7 0
-1 -2 -3 4 5 6 -7 0
-1 -2 3 -4 0
-1 -2 3 -4 -6 -7 0
-1 -2 3 -4 -6 7 0
-1 -2 3 -4 6 -7 0
-1 -2 3 -4 6 7 0
-1 -2 3 4 5 6 7 0
-1 -2 3 4 6 7 0
-1 2 0
-1 2 -3 -4 0
-1 2 -3 -4 -6 -7 0
-1 2 -3 -4 -6 7 0
-1 2 -3 -4 -5 -6 -7 0
-1 2 -3 -4 -5 -6 7 0
-1 2 -3 -4 -5 6 -7 0
-1 2 -3 -4 -5 6 7 0
-1 2 -3 -4 5 -6 -7 0
-1 2 -3 -4 5 -6 7 0
-1 2 -3 -4 5 6 -7 0
-1 2 -3 -4 6 -7 0
-1 2 -3 4 0
-1 2 -3 4 -6 7 0
-1 2 -3 4 -5 -6 -7 0
-1 2 -3 4 -5 -6 7 0
-1 2 -3 4 -5 6 -7 0
-1 2 -3 4 5 -6 -7 0
-1 2 3 -4 -6 -7 0
-1 2 3 -4 5 6 7 0
-1 2 3 -4 6 -7 0
-1 2 3 4 -5 6 7 0
-1 2 3 4 5 -6 7 0
-1 2 3 4 5 6 -7 0
-1 2 3 4 6 -7 0
-1 3 5 6 0
1 -3 5 6 0
1 -2 -3 -4 0
1 -2 -3 -4 -6 -7 0
1 -2 -3 -4 -6 7 0
1 -2 -3 -4 -5 -6 -7 0
1 -2 -3 -4 -5 -6 7 0
1 -2 -3 -4 -5 6 -7 0
1 -2 -3 -4 -5 6 7 0
1 -2 -3 -4 5 -6 -7 0
1 -2 -3 -4 5 -6 7 0
1 -2 -3 -4 5 6 -7 0
1 -2 -3 -4 6 -7 0
1 -2 -3 -4 6 7 0
1 -2 -3 4 -5 -6 -7 0
1 -2 -3 4 -5 -6 7 0
1 -2 -3 4 -5 6 -7 0
1 -2 -3 4 5 -6 -7 0
1 -2 -3 4 6 7 0
1 -2 3 -4 0
1 -2 3 -4 -6 -7 0
1 -2 3 -4 -6 7 0
1 -2 3 -4 5 6 7 0
1 -2 3 -4 6 -7 0
1 -2 3 4 0
1 -2 3 4 -6 7 0
1 -2 3 4 -5 6 7 0
1 -2 3 4 5 -6 7 0
1 -2 3 4 5 6 -7 0
1 2 -3 -4 -6 -7 0
1 2 -3 -4 -5 -6 -7 0
1 2 -3 -4 -5 -6 7 0
1 2 -3 -4 -5 6 -7 0
1 2 -3 -4 5 -6 -7 0
1 2 -3 -4 6 -7 0
1 2 -3 4 0
1 2 -3 4 -5 -6 -7 0
1 2 -3 4 5 6 7 0
1 2 -3 4 6 -7 0
1 2 3 -4 0
1 2 3 -4 -6 -7 0
1 2 3 -4 -5 6 7 0
1 2 3 -4 5 -6 7 0
1 2 3 -4 5 6 -7 0
1 2 3 -4 6 7 0
1 2 3 4 -6 -7 0
1 2 3 4 -5 -6 7 0
1 2 3 4 -5 6 -7 0
1 2 3 4 5 -6 -7 0
1 3 -5 6 0
1 3 5 -6 0
3 -5 6 -8 0
3 -5 6 8 0
3 -4 -6 -7 -8 -9 0
3 -4 -6 -7 -8 9 0
3 -4 -6 -7 8 -9 0
3 -4 -6 -7 8 9 0
3 -4 -6 7 8 9 0
3 -4 -5 -6 -7 -8 -9 0
3 -4 -5 -6 -7 -8 9 0
3 -4 -5 -6 -7 8 -9 0
3 -4 -5 -6 -7 8 9 0
3 -4 -5 -6 7 -8 -9 0
3 -4 -5 -6 7 -8 9 0
3 -4 -5 -6 7 8 -9 0
3 -4 -5 6 -7 8 9 0
3 -4 -5 6 7 -8 9 0
3 -4 -5 6 7 8 -9 0
3 -4 5 -6 -7 -8 -9 0
3 -4 5 -6 -7 -8 9 0
3 -4 5 -6 -7 8 -9 0
3 -4 5 -6 7 -8 -9 0
3 -4 5 6 -7 -8 9 0
3 -4 5 6 -7 8 -9 0
3 -4 5 6 7 -8 -9 0
3 -4 6 -7 -8 -9 0
3 -4 6 -7 -8 9 0
3 -4 6 -7 8 -9 0
3 -4 6 7 -8 9 0
3 4 -6 -7 -8 -9 0
3 4 -6 -7 8 -9 0
3 4 -6 7 8 -9 0
3 4 -5 -6 -7 -8 -9 0
3 4 -5 -6 -7 -8 9 0
3 4 -5 -6 -7 8 -9 0
3 4 -5 -6 7 -8 -9 0
3 4 -5 6 -7 -8 9 0
3 4 -5 6 -7 8 -9 0
3 4 -5 6 7 -8 -9 0
3 4 5 -6 -7 -8 -9 0
3 4 5 -6 7 8 9 0
3 4 5 6 -7 -8 -9 0
3 4 6 -7 -8 -9 0
3 4 6 -7 8 9 0
3 4 6 7 -8 -9 0
3 5 -6 -8 0
5 -6 -7 -8 -9 -10 0
5 -6 -7 -8 -9 10 0
5 -6 -7 -8 9 -10 0
5 -6 -7 -8 9 10 0
5 -6 7 -8 -9 -10 0
5 -6 7 -8 -9 10 0
5 -6 7 8 9 -10 0
5 6 -7 -8 -9 -10 0
5 6 -7 -8 -9 10 0
5 6 -7 8 9 -10 0
5 6 7 -8 9 -10 0
5 6 7 -8 9 10 0
5 6 7 8 -9 -10 0
6 -7 -8 -9 -10 0
6 -7 -8 -9 10 0
6 -7 -8 9 10 0
6 -7 8 -9 -10 0
6 -7 8 -9 10 0
6 7 -8 -9 -10 0
6 7 -8 9 -10 0
6 7 8 -9 -10 0
8 -9 -10 0
1 2 -3 -4 -5 6 7 -8 -9 10 0
1 -2 -3 4 5 -6 7 8 -9 10 0
1 2 -3 -4 5 -6 7 8 9 10 0
1 -2 -3 4 5 -6 7 8 9 10 0
1 2 3 4 5 6 7 8 -9 10 0
1 2 3 4 5 6 7 8 9 -10 0
1 2 3 4 5 6 7 8 9 10 0
