c completeness certificate formula, level 5
c encoding sha256 afe3924af9054d3f73b1cccc0d74292502deb441fc5294a1cd9e6feb10d4551d
p cnf 38 6210
-36 -37 -38 0
-36 37 -38 0
-34 -35 -36 -37 -38 0
-34 -35 -36 -37 38 0
-34 -35 36 -37 -38 0
-34 -35 36 -37 38 0
-34 -35 36 37 38 0
-34 35 -36 -37 -38 0
-34 35 -36 -37 38 0
-34 35 36 -37 -38 0
-34 35 36 37 -38 0
-33 -34 -35 -36 -37 -38 0
-33 -34 -35 -36 -37 38 0
-33 -34 -35 -36 37 -38 0
-33 -34 -35 -36 37 38 0
-33 -34 35 -36 -37 -38 0
-33 -34 35 -36 -37 38 0
-33 -34 35 -36 37 -38 0
-33 -34 35 36 37 38 0
-33 34 -35 -36 -37 -38 0
-33 34 -35 -36 -37 38 0
-33 34 -35 -36 37 -38 0
-33 34 -35 36 37 38 0
-33 34 35 -36 -37 -38 0
-33 34 35 -36 37 38 0
-33 34 35 36 -37 38 0
-31 -32 -34 -35 -36 -37 0
-31 -32 -34 -35 -36 37 0
-31 -32 -34 -35 36 -37 0
-31 -32 -34 -35 36 37 0
-31 -32 34 -35 -36 -37 0
-31 -32 34 -35 -36 37 0
-31 -32 34 -35 36 -37 0
-31 -32 34 -35 36 37 0
-31 -32 34 35 36 37 0
-31 32 -34 -35 -36 -37 0
-31 32 -34 -35 -36 37 0
-31 32 -34 -35 36 -37 0
-31 32 -34 35 -36 37 0
-31 32 34 -35 -36 -37 0
-31 32 34 -35 36 -37 0
-31 32 34 35 36 -37 0
-30 -31 -32 -33 -34 -35 -36 -37 0
-30 -31 -32 -33 -34 -35 -36 37 0
-30 -31 -32 -33 -34 -35 36 -37 0
-30 -31 -32 -33 -34 -35 36 37 0
-30 -31 -32 -33 -34 35 -36 -37 0
-30 -31 -32 -33 -34 35 -36 37 0
-30 -31 -32 -33 -34 35 36 -37 0
-30 -31 -32 -33 -34 35 36 37 0
-30 -31 -32 33 -34 -35 -36 -37 0
-30 -31 -32 33 -34 -35 -36 37 0
-30 -31 -32 33 -34 -35 36 -37 0
-30 -31 -32 33 -34 -35 36 37 0
-30 -31 -32 33 -34 35 -36 -37 0
-30 -31 -32 33 -34 35 -36 37 0
-30 -31 -32 33 -34 35 36 -37 0
-30 -31 -32 33 -34 35 36 37 0
-30 -31 -32 33 34 35 36 37 0
-30 -31 32 -33 -34 -35 -36 -37 0
-30 -31 32 -33 -34 -35 -36 37 0
-30 -31 32 -33 -34 -35 36 -37 0
-30 -31 32 -33 -34 -35 36 37 0
-30 -31 32 -33 -34 35 -36 -37 0
-30 -31 32 -33 -34 35 -36 37 0
-30 -31 32 -33 -34 35 36 -37 0
-30 -31 32 -33 -34 35 36 37 0
-30 -31 32 -33 34 35 36 37 0
-30 -31 32 33 -34 -35 -36 -37 0
-30 -31 32 33 -34 -35 -36 37 0
-30 -31 32 33 -34 -35 36 -37 0
-30 -31 32 33 -34 -35 36 37 0
-30 -31 32 33 -34 35 -36 -37 0
-30 -31 32 33 -34 35 -36 37 0
-30 -31 32 33 -34 35 36 -37 0
-30 -31 32 33 34 -35 36 37 0
-30 -31 32 33 34 35 -36 37 0
-30 -31 32 33 34 35 36 -37 0
-30 31 -32 -33 -34 -35 -36 -37 0
-30 31 -32 -33 -34 -35 -36 37 0
-30 31 -32 -33 -34 -35 36 -37 0
-30 31 -32 -33 -34 -35 36 37 0
-30 31 -32 -33 -34 35 -36 -37 0
-30 31 -32 -33 -34 35 -36 37 0
-30 31 -32 -33 -34 35 36 -37 0
-30 31 -32 -33 -34 35 36 37 0
-30 31 -32 -33 34 35 36 37 0
-30 31 -32 33 -34 -35 -36 -37 0
-30 31 -32 33 -34 -35 -36 37 0
-30 31 -32 33 -34 -35 36 -37 0
-30 31 -32 33 -34 -35 36 37 0
-30 31 -32 33 -34 35 -36 -37 0
-30 31 -32 33 -34 35 -36 37 0
-30 31 -32 33 -34 35 36 -37 0
-30 31 -32 33 34 -35 36 37 0
-30 31 -32 33 34 35 -36 37 0
-30 31 -32 33 34 35 36 -37 0
-30 31 32 -33 -34 -35 -36 -37 0
-30 31 32 -33 -34 -35 -36 37 0
-30 31 32 -33 -34 -35 36 -37 0
-30 31 32 -33 -34 -35 36 37 0
-30 31 32 -33 -34 35 -36 -37 0
-30 31 32 -33 -34 35 -36 37 0
-30 31 32 -33 -34 35 36 -37 0
-30 31 32 -33 34 -35 36 37 0
-30 31 32 -33 34 35 -36 37 0
-30 31 32 -33 34 35 36 -37 0
-30 31 32 33 -34 -35 -36 -37 0
-30 31 32 33 -34 -35 -36 37 0
-30 31 32 33 -34 -35 36 -37 0
-30 31 32 33 -34 35 -36 -37 0
-30 31 32 33 34 -35 -36 37 0
-30 31 32 33 34 -35 36 -37 0
-30 31 32 33 34 35 -36 -37 0
-29 -30 -31 -33 -34 -36 0
-29 -30 -31 -33 -34 36 0
-29 -30 -31 -33 34 -36 0
-29 -30 -31 -33 34 36 0
-29 -30 31 -33 -34 -36 0
-29 -30 31 -33 -34 36 0
-29 -30 31 -33 34 -36 0
-29 -30 31 33 34 36 0
-29 30 -31 -33 -34 -36 0
-29 30 -31 -33 -34 36 0
-29 30 -31 -33 34 -36 0
-29 30 -31 33 34 36 0
-29 30 31 -33 -34 -36 0
-29 30 31 -33 34 36 0
-29 30 31 33 -34 36 0
-27 -28 -31 -32 -34 -35 0
-27 -28 -31 -32 -34 35 0
-27 -28 -31 -32 34 -35 0
-27 -28 -31 -32 34 35 0
-27 -28 31 -32 -34 -35 0
-27 -28 31 -32 -34 35 0
-27 -28 31 -32 34 -35 0
-27 -28 31 -32 34 35 0
-27 -28 31 32 34 35 0
-27 28 -31 -32 -34 -35 0
-27 28 -31 -32 -34 35 0
-27 28 -31 -32 34 -35 0
-27 28 -31 32 -34 35 0
-27 28 31 -32 -34 -35 0
-27 28 31 -32 34 -35 0
-27 28 31 32 34 -35 0
-26 -27 -28 -30 -31 -32 -33 -34 -35 0
-26 -27 -28 -30 -31 -32 -33 -34 35 0
-26 -27 -28 -30 -31 -32 -33 34 -35 0
-26 -27 -28 -30 -31 -32 -33 34 35 0
-26 -27 -28 -30 -31 -32 33 -34 -35 0
-26 -27 -28 -30 -31 -32 33 -34 35 0
-26 -27 -28 -30 -31 -32 33 34 -35 0
-26 -27 -28 -30 -31 -32 33 34 35 0
-26 -27 -28 -30 -31 32 -33 -34 -35 0
-26 -27 -28 -30 -31 32 -33 -34 35 0
-26 -27 -28 -30 -31 32 -33 34 -35 0
-26 -27 -28 -30 -31 32 -33 34 35 0
-26 -27 -28 -30 -31 32 33 -34 -35 0
-26 -27 -28 -30 -31 32 33 -34 35 0
-26 -27 -28 -30 -31 32 33 34 -35 0
-26 -27 -28 -30 -31 32 33 34 35 0
-26 -27 -28 30 -31 -32 -33 -34 -35 0
-26 -27 -28 30 -31 -32 -33 -34 35 0
-26 -27 -28 30 -31 -32 -33 34 -35 0
-26 -27 -28 30 -31 -32 -33 34 35 0
-26 -27 -28 30 -31 -32 33 -34 -35 0
-26 -27 -28 30 -31 -32 33 -34 35 0
-26 -27 -28 30 -31 -32 33 34 -35 0
-26 -27 -28 30 -31 -32 33 34 35 0
-26 -27 -28 30 -31 32 -33 -34 -35 0
-26 -27 -28 30 -31 32 -33 -34 35 0
-26 -27 -28 30 -31 32 -33 34 -35 0
-26 -27 -28 30 -31 32 -33 34 35 0
-26 -27 -28 30 -31 32 33 -34 -35 0
-26 -27 -28 30 -31 32 33 -34 35 0
-26 -27 -28 30 -31 32 33 34 -35 0
-26 -27 -28 30 31 32 33 34 35 0
-26 -27 28 -30 -31 -32 -33 -34 -35 0
-26 -27 28 -30 -31 -32 -33 -34 35 0
-26 -27 28 -30 -31 -32 -33 34 -35 0
-26 -27 28 -30 -31 -32 -33 34 35 0
-26 -27 28 -30 -31 -32 33 -34 -35 0
-26 -27 28 -30 -31 -32 33 -34 35 0
-26 -27 28 -30 -31 -32 33 34 -35 0
-26 -27 28 -30 -31 -32 33 34 35 0
-26 -27 28 -30 -31 32 -33 -34 -35 0
-26 -27 28 -30 -31 32 -33 -34 35 0
-26 -27 28 -30 -31 32 -33 34 -35 0
-26 -27 28 -30 -31 32 -33 34 35 0
-26 -27 28 -30 -31 32 33 -34 -35 0
-26 -27 28 -30 -31 32 33 -34 35 0
-26 -27 28 -30 -31 32 33 34 -35 0
-26 -27 28 -30 31 32 33 34 35 0
-26 -27 28 30 -31 -32 -33 -34 -35 0
-26 -27 28 30 -31 -32 -33 -34 35 0
-26 -27 28 30 -31 -32 -33 34 -35 0
-26 -27 28 30 -31 -32 -33 34 35 0
-26 -27 28 30 -31 -32 33 -34 -35 0
-26 -27 28 30 -31 -32 33 -34 35 0
-26 -27 28 30 -31 -32 33 34 -35 0
-26 -27 28 30 -31 32 -33 -34 -35 0
-26 -27 28 30 -31 32 -33 -34 35 0
-26 -27 28 30 -31 32 -33 34 -35 0
-26 -27 28 30 -31 32 33 -34 -35 0
-26 -27 28 30 31 -32 33 34 35 0
-26 -27 28 30 31 32 -33 34 35 0
-26 -27 28 30 31 32 33 -34 35 0
-26 -27 28 30 31 32 33 34 -35 0
-26 27 -28 -30 -31 -32 -33 -34 -35 0
-26 27 -28 -30 -31 -32 -33 -34 35 0
-26 27 -28 -30 -31 -32 -33 34 -35 0
-26 27 -28 -30 -31 -32 -33 34 35 0
-26 27 -28 -30 -31 -32 33 -34 -35 0
-26 27 -28 -30 -31 -32 33 -34 35 0
-26 27 -28 -30 -31 -32 33 34 -35 0
-26 27 -28 -30 -31 -32 33 34 35 0
-26 27 -28 -30 -31 32 -33 -34 -35 0
-26 27 -28 -30 -31 32 -33 -34 35 0
-26 27 -28 -30 -31 32 -33 34 -35 0
-26 27 -28 -30 -31 32 -33 34 35 0
-26 27 -28 -30 -31 32 33 -34 -35 0
-26 27 -28 -30 -31 32 33 -34 35 0
-26 27 -28 -30 -31 32 33 34 -35 0
-26 27 -28 -30 31 32 33 34 35 0
-26 27 -28 30 -31 -32 -33 -34 -35 0
-26 27 -28 30 -31 -32 -33 -34 35 0
-26 27 -28 30 -31 -32 -33 34 -35 0
-26 27 -28 30 -31 -32 -33 34 35 0
-26 27 -28 30 -31 -32 33 -34 -35 0
-26 27 -28 30 -31 -32 33 -34 35 0
-26 27 -28 30 -31 -32 33 34 -35 0
-26 27 -28 30 -31 32 -33 -34 -35 0
-26 27 -28 30 -31 32 -33 -34 35 0
-26 27 -28 30 -31 32 -33 34 -35 0
-26 27 -28 30 -31 32 33 -34 -35 0
-26 27 -28 30 31 -32 33 34 35 0
-26 27 -28 30 31 32 -33 34 35 0
-26 27 -28 30 31 32 33 -34 35 0
-26 27 -28 30 31 32 33 34 -35 0
-26 27 28 -30 -31 -32 -33 -34 -35 0
-26 27 28 -30 -31 -32 -33 -34 35 0
-26 27 28 -30 -31 -32 -33 34 -35 0
-26 27 28 -30 -31 -32 -33 34 35 0
-26 27 28 -30 -31 -32 33 -34 -35 0
-26 27 28 -30 -31 -32 33 -34 35 0
-26 27 28 -30 -31 -32 33 34 -35 0
-26 27 28 -30 -31 32 -33 -34 -35 0
-26 27 28 -30 -31 32 -33 -34 35 0
-26 27 28 -30 -31 32 -33 34 -35 0
-26 27 28 -30 -31 32 33 -34 -35 0
-26 27 28 -30 31 -32 33 34 35 0
-26 27 28 -30 31 32 -33 34 35 0
-26 27 28 -30 31 32 33 -34 35 0
-26 27 28 -30 31 32 33 34 -35 0
-26 27 28 30 -31 -32 -33 -34 -35 0
-26 27 28 30 -31 -32 -33 -34 35 0
-26 27 28 30 -31 -32 -33 34 -35 0
-26 27 28 30 -31 -32 33 -34 -35 0
-26 27 28 30 -31 32 -33 -34 -35 0
-26 27 28 30 -31 32 33 34 35 0
-26 27 28 30 31 -32 -33 34 35 0
-26 27 28 30 31 -32 33 -34 35 0
-26 27 28 30 31 -32 33 34 -35 0
-26 27 28 30 31 32 -33 -34 35 0
-26 27 28 30 31 32 -33 34 -35 0
-26 27 28 30 31 32 33 -34 -35 0
-25 -26 -27 -29 -30 -31 -33 -34 0
-25 -26 -27 -29 -30 -31 -33 34 0
-25 -26 -27 -29 -30 -31 33 -34 0
-25 -26 -27 -29 -30 -31 33 34 0
-25 -26 -27 -29 -30 31 -33 -34 0
-25 -26 -27 -29 -30 31 -33 34 0
-25 -26 -27 -29 -30 31 33 -34 0
-25 -26 -27 -29 -30 31 33 34 0
-25 -26 -27 29 -30 -31 -33 -34 0
-25 -26 -27 29 -30 -31 -33 34 0
-25 -26 -27 29 -30 -31 33 -34 0
-25 -26 -27 29 -30 -31 33 34 0
-25 -26 -27 29 -30 31 -33 -34 0
-25 -26 -27 29 -30 31 -33 34 0
-25 -26 -27 29 -30 31 33 -34 0
-25 -26 -27 29 -30 31 33 34 0
-25 -26 -27 29 30 31 33 34 0
-25 -26 27 -29 -30 -31 -33 -34 0
-25 -26 27 -29 -30 -31 -33 34 0
-25 -26 27 -29 -30 -31 33 -34 0
-25 -26 27 -29 -30 -31 33 34 0
-25 -26 27 -29 -30 31 -33 -34 0
-25 -26 27 -29 -30 31 -33 34 0
-25 -26 27 -29 -30 31 33 -34 0
-25 -26 27 -29 -30 31 33 34 0
-25 -26 27 -29 30 31 33 34 0
-25 -26 27 29 -30 -31 -33 -34 0
-25 -26 27 29 -30 -31 -33 34 0
-25 -26 27 29 -30 -31 33 -34 0
-25 -26 27 29 -30 -31 33 34 0
-25 -26 27 29 -30 31 -33 -34 0
-25 -26 27 29 -30 31 -33 34 0
-25 -26 27 29 -30 31 33 -34 0
-25 -26 27 29 30 -31 33 34 0
-25 -26 27 29 30 31 -33 34 0
-25 -26 27 29 30 31 33 -34 0
-25 26 -27 -29 -30 -31 -33 -34 0
-25 26 -27 -29 -30 -31 -33 34 0
-25 26 -27 -29 -30 -31 33 -34 0
-25 26 -27 -29 -30 -31 33 34 0
-25 26 -27 -29 -30 31 -33 -34 0
-25 26 -27 -29 -30 31 -33 34 0
-25 26 -27 -29 -30 31 33 -34 0
-25 26 -27 -29 -30 31 33 34 0
-25 26 -27 -29 30 31 33 34 0
-25 26 -27 29 -30 -31 -33 -34 0
-25 26 -27 29 -30 -31 -33 34 0
-25 26 -27 29 -30 -31 33 -34 0
-25 26 -27 29 -30 -31 33 34 0
-25 26 -27 29 -30 31 -33 -34 0
-25 26 -27 29 -30 31 -33 34 0
-25 26 -27 29 -30 31 33 -34 0
-25 26 -27 29 30 -31 33 34 0
-25 26 -27 29 30 31 -33 34 0
-25 26 -27 29 30 31 33 -34 0
-25 26 27 -29 -30 -31 -33 -34 0
-25 26 27 -29 -30 -31 -33 34 0
-25 26 27 -29 -30 -31 33 -34 0
-25 26 27 -29 -30 -31 33 34 0
-25 26 27 -29 -30 31 -33 -34 0
-25 26 27 -29 -30 31 -33 34 0
-25 26 27 -29 -30 31 33 -34 0
-25 26 27 -29 30 -31 33 34 0
-25 26 27 -29 30 31 -33 34 0
-25 26 27 -29 30 31 33 -34 0
-25 26 27 29 -30 -31 -33 -34 0
-25 26 27 29 -30 -31 -33 34 0
-25 26 27 29 -30 -31 33 -34 0
-25 26 27 29 -30 31 -33 -34 0
-25 26 27 29 30 -31 -33 34 0
-25 26 27 29 30 -31 33 -34 0
-25 26 27 29 30 31 -33 -34 0
-24 -25 -26 -29 -30 -33 0
-24 -25 -26 -29 -30 33 0
-24 -25 -26 -29 30 -33 0
-24 -25 -26 -29 30 33 0
-24 -25 26 -29 -30 -33 0
-24 -25 26 -29 -30 33 0
-24 -25 26 -29 30 -33 0
-24 -25 26 29 30 33 0
-24 25 -26 -29 -30 -33 0
-24 25 -26 -29 -30 33 0
-24 25 -26 -29 30 -33 0
-24 25 -26 29 30 33 0
-24 25 26 -29 -30 -33 0
-24 25 26 -29 30 33 0
-24 25 26 29 -30 33 0
-22 -23 -27 -28 -31 -32 0
-22 -23 -27 -28 -31 32 0
-22 -23 -27 -28 31 -32 0
-22 -23 -27 -28 31 32 0
-22 -23 27 -28 -31 -32 0
-22 -23 27 -28 -31 32 0
-22 -23 27 -28 31 -32 0
-22 -23 27 -28 31 32 0
-22 -23 27 28 31 32 0
-22 23 -27 -28 -31 -32 0
-22 23 -27 -28 -31 32 0
-22 23 -27 -28 31 -32 0
-22 23 -27 28 -31 32 0
-22 23 27 -28 -31 -32 0
-22 23 27 -28 31 -32 0
-22 23 27 28 31 -32 0
-21 -22 -23 -26 -27 -28 -30 -31 -32 0
-21 -22 -23 -26 -27 -28 -30 -31 32 0
-21 -22 -23 -26 -27 -28 -30 31 -32 0
-21 -22 -23 -26 -27 -28 -30 31 32 0
-21 -22 -23 -26 -27 -28 30 -31 -32 0
-21 -22 -23 -26 -27 -28 30 -31 32 0
-21 -22 -23 -26 -27 -28 30 31 -32 0
-21 -22 -23 -26 -27 -28 30 31 32 0
-21 -22 -23 -26 -27 28 -30 -31 -32 0
-21 -22 -23 -26 -27 28 -30 -31 32 0
-21 -22 -23 -26 -27 28 -30 31 -32 0
-21 -22 -23 -26 -27 28 -30 31 32 0
-21 -22 -23 -26 -27 28 30 -31 -32 0
-21 -22 -23 -26 -27 28 30 -31 32 0
-21 -22 -23 -26 -27 28 30 31 -32 0
-21 -22 -23 -26 -27 28 30 31 32 0
-21 -22 -23 26 -27 -28 -30 -31 -32 0
-21 -22 -23 26 -27 -28 -30 -31 32 0
-21 -22 -23 26 -27 -28 -30 31 -32 0
-21 -22 -23 26 -27 -28 -30 31 32 0
-21 -22 -23 26 -27 -28 30 -31 -32 0
-21 -22 -23 26 -27 -28 30 -31 32 0
-21 -22 -23 26 -27 -28 30 31 -32 0
-21 -22 -23 26 -27 -28 30 31 32 0
-21 -22 -23 26 -27 28 -30 -31 -32 0
-21 -22 -23 26 -27 28 -30 -31 32 0
-21 -22 -23 26 -27 28 -30 31 -32 0
-21 -22 -23 26 -27 28 -30 31 32 0
-21 -22 -23 26 -27 28 30 -31 -32 0
-21 -22 -23 26 -27 28 30 -31 32 0
-21 -22 -23 26 -27 28 30 31 -32 0
-21 -22 -23 26 27 28 30 31 32 0
-21 -22 23 -26 -27 -28 -30 -31 -32 0
-21 -22 23 -26 -27 -28 -30 -31 32 0
-21 -22 23 -26 -27 -28 -30 31 -32 0
-21 -22 23 -26 -27 -28 -30 31 32 0
-21 -22 23 -26 -27 -28 30 -31 -32 0
-21 -22 23 -26 -27 -28 30 -31 32 0
-21 -22 23 -26 -27 -28 30 31 -32 0
-21 -22 23 -26 -27 -28 30 31 32 0
-21 -22 23 -26 -27 28 -30 -31 -32 0
-21 -22 23 -26 -27 28 -30 -31 32 0
-21 -22 23 -26 -27 28 -30 31 -32 0
-21 -22 23 -26 -27 28 -30 31 32 0
-21 -22 23 -26 -27 28 30 -31 -32 0
-21 -22 23 -26 -27 28 30 -31 32 0
-21 -22 23 -26 -27 28 30 31 -32 0
-21 -22 23 -26 27 28 30 31 32 0
-21 -22 23 26 -27 -28 -30 -31 -32 0
-21 -22 23 26 -27 -28 -30 -31 32 0
-21 -22 23 26 -27 -28 -30 31 -32 0
-21 -22 23 26 -27 -28 -30 31 32 0
-21 -22 23 26 -27 -28 30 -31 -32 0
-21 -22 23 26 -27 -28 30 -31 32 0
-21 -22 23 26 -27 -28 30 31 -32 0
-21 -22 23 26 -27 28 -30 -31 -32 0
-21 -22 23 26 -27 28 -30 -31 32 0
-21 -22 23 26 -27 28 -30 31 -32 0
-21 -22 23 26 -27 28 30 -31 -32 0
-21 -22 23 26 27 -28 30 31 32 0
-21 -22 23 26 27 28 -30 31 32 0
-21 -22 23 26 27 28 30 -31 32 0
-21 -22 23 26 27 28 30 31 -32 0
-21 22 -23 -26 -27 -28 -30 -31 -32 0
-21 22 -23 -26 -27 -28 -30 -31 32 0
-21 22 -23 -26 -27 -28 -30 31 -32 0
-21 22 -23 -26 -27 -28 -30 31 32 0
-21 22 -23 -26 -27 -28 30 -31 -32 0
-21 22 -23 -26 -27 -28 30 -31 32 0
-21 22 -23 -26 -27 -28 30 31 -32 0
-21 22 -23 -26 -27 -28 30 31 32 0
-21 22 -23 -26 -27 28 -30 -31 -32 0
-21 22 -23 -26 -27 28 -30 -31 32 0
-21 22 -23 -26 -27 28 -30 31 -32 0
-21 22 -23 -26 -27 28 -30 31 32 0
-21 22 -23 -26 -27 28 30 -31 -32 0
-21 22 -23 -26 -27 28 30 -31 32 0
-21 22 -23 -26 -27 28 30 31 -32 0
-21 22 -23 -26 27 28 30 31 32 0
-21 22 -23 26 -27 -28 -30 -31 -32 0
-21 22 -23 26 -27 -28 -30 -31 32 0
-21 22 -23 26 -27 -28 -30 31 -32 0
-21 22 -23 26 -27 -28 -30 31 32 0
-21 22 -23 26 -27 -28 30 -31 -32 0
-21 22 -23 26 -27 -28 30 -31 32 0
-21 22 -23 26 -27 -28 30 31 -32 0
-21 22 -23 26 -27 28 -30 -31 -32 0
-21 22 -23 26 -27 28 -30 -31 32 0
-21 22 -23 26 -27 28 -30 31 -32 0
-21 22 -23 26 -27 28 30 -31 -32 0
-21 22 -23 26 27 -28 30 31 32 0
-21 22 -23 26 27 28 -30 31 32 0
-21 22 -23 26 27 28 30 -31 32 0
-21 22 -23 26 27 28 30 31 -32 0
-21 22 23 -26 -27 -28 -30 -31 -32 0
-21 22 23 -26 -27 -28 -30 -31 32 0
-21 22 23 -26 -27 -28 -30 31 -32 0
-21 22 23 -26 -27 -28 -30 31 32 0
-21 22 23 -26 -27 -28 30 -31 -32 0
-21 22 23 -26 -27 -28 30 -31 32 0
-21 22 23 -26 -27 -28 30 31 -32 0
-21 22 23 -26 -27 28 -30 -31 -32 0
-21 22 23 -26 -27 28 -30 -31 32 0
-21 22 23 -26 -27 28 -30 31 -32 0
-21 22 23 -26 -27 28 30 -31 -32 0
-21 22 23 -26 27 -28 30 31 32 0
-21 22 23 -26 27 28 -30 31 32 0
-21 22 23 -26 27 28 30 -31 32 0
-21 22 23 -26 27 28 30 31 -32 0
-21 22 23 26 -27 -28 -30 -31 -32 0
-21 22 23 26 -27 -28 -30 -31 32 0
-21 22 23 26 -27 -28 -30 31 -32 0
-21 22 23 26 -27 -28 30 -31 -32 0
-21 22 23 26 -27 28 -30 -31 -32 0
-21 22 23 26 -27 28 30 31 32 0
-21 22 23 26 27 -28 -30 31 32 0
-21 22 23 26 27 -28 30 -31 32 0
-21 22 23 26 27 -28 30 31 -32 0
-21 22 23 26 27 28 -30 -31 32 0
-21 22 23 26 27 28 -30 31 -32 0
-21 22 23 26 27 28 30 -31 -32 0
-20 -21 -22 -25 -26 -27 -29 -30 -31 0
-20 -21 -22 -25 -26 -27 -29 -30 31 0
-20 -21 -22 -25 -26 -27 -29 30 -31 0
-20 -21 -22 -25 -26 -27 -29 30 31 0
-20 -21 -22 -25 -26 -27 29 -30 -31 0
-20 -21 -22 -25 -26 -27 29 -30 31 0
-20 -21 -22 -25 -26 -27 29 30 -31 0
-20 -21 -22 -25 -26 -27 29 30 31 0
-20 -21 -22 -25 -26 27 -29 -30 -31 0
-20 -21 -22 -25 -26 27 -29 -30 31 0
-20 -21 -22 -25 -26 27 -29 30 -31 0
-20 -21 -22 -25 -26 27 -29 30 31 0
-20 -21 -22 -25 -26 27 29 -30 -31 0
-20 -21 -22 -25 -26 27 29 -30 31 0
-20 -21 -22 -25 -26 27 29 30 -31 0
-20 -21 -22 -25 -26 27 29 30 31 0
-20 -21 -22 25 -26 -27 -29 -30 -31 0
-20 -21 -22 25 -26 -27 -29 -30 31 0
-20 -21 -22 25 -26 -27 -29 30 -31 0
-20 -21 -22 25 -26 -27 -29 30 31 0
-20 -21 -22 25 -26 -27 29 -30 -31 0
-20 -21 -22 25 -26 -27 29 -30 31 0
-20 -21 -22 25 -26 -27 29 30 -31 0
-20 -21 -22 25 -26 -27 29 30 31 0
-20 -21 -22 25 -26 27 -29 -30 -31 0
-20 -21 -22 25 -26 27 -29 -30 31 0
-20 -21 -22 25 -26 27 -29 30 -31 0
-20 -21 -22 25 -26 27 -29 30 31 0
-20 -21 -22 25 -26 27 29 -30 -31 0
-20 -21 -22 25 -26 27 29 -30 31 0
-20 -21 -22 25 -26 27 29 30 -31 0
-20 -21 -22 25 26 27 29 30 31 0
-20 -21 22 -25 -26 -27 -29 -30 -31 0
-20 -21 22 -25 -26 -27 -29 -30 31 0
-20 -21 22 -25 -26 -27 -29 30 -31 0
-20 -21 22 -25 -26 -27 -29 30 31 0
-20 -21 22 -25 -26 -27 29 -30 -31 0
-20 -21 22 -25 -26 -27 29 -30 31 0
-20 -21 22 -25 -26 -27 29 30 -31 0
-20 -21 22 -25 -26 -27 29 30 31 0
-20 -21 22 -25 -26 27 -29 -30 -31 0
-20 -21 22 -25 -26 27 -29 -30 31 0
-20 -21 22 -25 -26 27 -29 30 -31 0
-20 -21 22 -25 -26 27 -29 30 31 0
-20 -21 22 -25 -26 27 29 -30 -31 0
-20 -21 22 -25 -26 27 29 -30 31 0
-20 -21 22 -25 -26 27 29 30 -31 0
-20 -21 22 -25 26 27 29 30 31 0
-20 -21 22 25 -26 -27 -29 -30 -31 0
-20 -21 22 25 -26 -27 -29 -30 31 0
-20 -21 22 25 -26 -27 -29 30 -31 0
-20 -21 22 25 -26 -27 -29 30 31 0
-20 -21 22 25 -26 -27 29 -30 -31 0
-20 -21 22 25 -26 -27 29 -30 31 0
-20 -21 22 25 -26 -27 29 30 -31 0
-20 -21 22 25 -26 27 -29 -30 -31 0
-20 -21 22 25 -26 27 -29 -30 31 0
-20 -21 22 25 -26 27 -29 30 -31 0
-20 -21 22 25 -26 27 29 -30 -31 0
-20 -21 22 25 26 -27 29 30 31 0
-20 -21 22 25 26 27 -29 30 31 0
-20 -21 22 25 26 27 29 -30 31 0
-20 -21 22 25 26 27 29 30 -31 0
-20 21 -22 -25 -26 -27 -29 -30 -31 0
-20 21 -22 -25 -26 -27 -29 -30 31 0
-20 21 -22 -25 -26 -27 -29 30 -31 0
-20 21 -22 -25 -26 -27 -29 30 31 0
-20 21 -22 -25 -26 -27 29 -30 -31 0
-20 21 -22 -25 -26 -27 29 -30 31 0
-20 21 -22 -25 -26 -27 29 30 -31 0
-20 21 -22 -25 -26 -27 29 30 31 0
-20 21 -22 -25 -26 27 -29 -30 -31 0
-20 21 -22 -25 -26 27 -29 -30 31 0
-20 21 -22 -25 -26 27 -29 30 -31 0
-20 21 -22 -25 -26 27 -29 30 31 0
-20 21 -22 -25 -26 27 29 -30 -31 0
-20 21 -22 -25 -26 27 29 -30 31 0
-20 21 -22 -25 -26 27 29 30 -31 0
-20 21 -22 -25 26 27 29 30 31 0
-20 21 -22 25 -26 -27 -29 -30 -31 0
-20 21 -22 25 -26 -27 -29 -30 31 0
-20 21 -22 25 -26 -27 -29 30 -31 0
-20 21 -22 25 -26 -27 -29 30 31 0
-20 21 -22 25 -26 -27 29 -30 -31 0
-20 21 -22 25 -26 -27 29 -30 31 0
-20 21 -22 25 -26 -27 29 30 -31 0
-20 21 -22 25 -26 27 -29 -30 -31 0
-20 21 -22 25 -26 27 -29 -30 31 0
-20 21 -22 25 -26 27 -29 30 -31 0
-20 21 -22 25 -26 27 29 -30 -31 0
-20 21 -22 25 26 -27 29 30 31 0
-20 21 -22 25 26 27 -29 30 31 0
-20 21 -22 25 26 27 29 -30 31 0
-20 21 -22 25 26 27 29 30 -31 0
-20 21 22 -25 -26 -27 -29 -30 -31 0
-20 21 22 -25 -26 -27 -29 -30 31 0
-20 21 22 -25 -26 -27 -29 30 -31 0
-20 21 22 -25 -26 -27 -29 30 31 0
-20 21 22 -25 -26 -27 29 -30 -31 0
-20 21 22 -25 -26 -27 29 -30 31 0
-20 21 22 -25 -26 -27 29 30 -31 0
-20 21 22 -25 -26 27 -29 -30 -31 0
-20 21 22 -25 -26 27 -29 -30 31 0
-20 21 22 -25 -26 27 -29 30 -31 0
-20 21 22 -25 -26 27 29 -30 -31 0
-20 21 22 -25 26 -27 29 30 31 0
-20 21 22 -25 26 27 -29 30 31 0
-20 21 22 -25 26 27 29 -30 31 0
-20 21 22 -25 26 27 29 30 -31 0
-20 21 22 25 -26 -27 -29 -30 -31 0
-20 21 22 25 -26 -27 -29 -30 31 0
-20 21 22 25 -26 -27 -29 30 -31 0
-20 21 22 25 -26 -27 29 -30 -31 0
-20 21 22 25 -26 27 -29 -30 -31 0
-20 21 22 25 -26 27 29 30 31 0
-20 21 22 25 26 -27 -29 30 31 0
-20 21 22 25 26 -27 29 -30 31 0
-20 21 22 25 26 -27 29 30 -31 0
-20 21 22 25 26 27 -29 -30 31 0
-20 21 22 25 26 27 -29 30 -31 0
-20 21 22 25 26 27 29 -30 -31 0
-19 -20 -21 -24 -25 -26 -29 -30 0
-19 -20 -21 -24 -25 -26 -29 30 0
-19 -20 -21 -24 -25 -26 29 -30 0
-19 -20 -21 -24 -25 -26 29 30 0
-19 -20 -21 -24 -25 26 -29 -30 0
-19 -20 -21 -24 -25 26 -29 30 0
-19 -20 -21 -24 -25 26 29 -30 0
-19 -20 -21 -24 -25 26 29 30 0
-19 -20 -21 24 -25 -26 -29 -30 0
-19 -20 -21 24 -25 -26 -29 30 0
-19 -20 -21 24 -25 -26 29 -30 0
-19 -20 -21 24 -25 -26 29 30 0
-19 -20 -21 24 -25 26 -29 -30 0
-19 -20 -21 24 -25 26 -29 30 0
-19 -20 -21 24 -25 26 29 -30 0
-19 -20 -21 24 -25 26 29 30 0
-19 -20 -21 24 25 26 29 30 0
-19 -20 21 -24 -25 -26 -29 -30 0
-19 -20 21 -24 -25 -26 -29 30 0
-19 -20 21 -24 -25 -26 29 -30 0
-19 -20 21 -24 -25 -26 29 30 0
-19 -20 21 -24 -25 26 -29 -30 0
-19 -20 21 -24 -25 26 -29 30 0
-19 -20 21 -24 -25 26 29 -30 0
-19 -20 21 -24 -25 26 29 30 0
-19 -20 21 -24 25 26 29 30 0
-19 -20 21 24 -25 -26 -29 -30 0
-19 -20 21 24 -25 -26 -29 30 0
-19 -20 21 24 -25 -26 29 -30 0
-19 -20 21 24 -25 -26 29 30 0
-19 -20 21 24 -25 26 -29 -30 0
-19 -20 21 24 -25 26 -29 30 0
-19 -20 21 24 -25 26 29 -30 0
-19 -20 21 24 25 -26 29 30 0
-19 -20 21 24 25 26 -29 30 0
-19 -20 21 24 25 26 29 -30 0
-19 20 -21 -24 -25 -26 -29 -30 0
-19 20 -21 -24 -25 -26 -29 30 0
-19 20 -21 -24 -25 -26 29 -30 0
-19 20 -21 -24 -25 -26 29 30 0
-19 20 -21 -24 -25 26 -29 -30 0
-19 20 -21 -24 -25 26 -29 30 0
-19 20 -21 -24 -25 26 29 -30 0
-19 20 -21 -24 -25 26 29 30 0
-19 20 -21 -24 25 26 29 30 0
-19 20 -21 24 -25 -26 -29 -30 0
-19 20 -21 24 -25 -26 -29 30 0
-19 20 -21 24 -25 -26 29 -30 0
-19 20 -21 24 -25 -26 29 30 0
-19 20 -21 24 -25 26 -29 -30 0
-19 20 -21 24 -25 26 -29 30 0
-19 20 -21 24 -25 26 29 -30 0
-19 20 -21 24 25 -26 29 30 0
-19 20 -21 24 25 26 -29 30 0
-19 20 -21 24 25 26 29 -30 0
-19 20 21 -24 -25 -26 -29 -30 0
-19 20 21 -24 -25 -26 -29 30 0
-19 20 21 -24 -25 -26 29 -30 0
-19 20 21 -24 -25 -26 29 30 0
-19 20 21 -24 -25 26 -29 -30 0
-19 20 21 -24 -25 26 -29 30 0
-19 20 21 -24 -25 26 29 -30 0
-19 20 21 -24 25 -26 29 30 0
-19 20 21 -24 25 26 -29 30 0
-19 20 21 -24 25 26 29 -30 0
-19 20 21 24 -25 -26 -29 -30 0
-19 20 21 24 -25 -26 -29 30 0
-19 20 21 24 -25 -26 29 -30 0
-19 20 21 24 -25 26 -29 -30 0
-19 20 21 24 25 -26 -29 30 0
-19 20 21 24 25 -26 29 -30 0
-19 20 21 24 25 26 -29 -30 0
-18 -19 -20 -24 -25 -29 0
-18 -19 -20 -24 -25 29 0
-18 -19 -20 -24 25 -29 0
-18 -19 -20 -24 25 29 0
-18 -19 20 -24 -25 -29 0
-18 -19 20 -24 -25 29 0
-18 -19 20 -24 25 -29 0
-18 -19 20 24 25 29 0
-18 19 -20 -24 -25 -29 0
-18 19 -20 -24 -25 29 0
-18 19 -20 -24 25 -29 0
-18 19 -20 24 25 29 0
-18 19 20 -24 -25 -29 0
-18 19 20 -24 25 29 0
-18 19 20 24 -25 29 0
-16 -17 -22 -23 -27 -28 0
-16 -17 -22 -23 -27 28 0
-16 -17 -22 -23 27 -28 0
-16 -17 -22 -23 27 28 0
-16 -17 22 -23 -27 -28 0
-16 -17 22 -23 -27 28 0
-16 -17 22 -23 27 -28 0
-16 -17 22 -23 27 28 0
-16 -17 22 23 27 28 0
-16 17 -22 -23 -27 -28 0
-16 17 -22 -23 -27 28 0
-16 17 -22 -23 27 -28 0
-16 17 -22 23 -27 28 0
-16 17 22 -23 -27 -28 0
-16 17 22 -23 27 -28 0
-16 17 22 23 27 -28 0
-15 -16 -17 -21 -22 -23 -26 -27 -28 0
-15 -16 -17 -21 -22 -23 -26 -27 28 0
-15 -16 -17 -21 -22 -23 -26 27 -28 0
-15 -16 -17 -21 -22 -23 -26 27 28 0
-15 -16 -17 -21 -22 -23 26 -27 -28 0
-15 -16 -17 -21 -22 -23 26 -27 28 0
-15 -16 -17 -21 -22 -23 26 27 -28 0
-15 -16 -17 -21 -22 -23 26 27 28 0
-15 -16 -17 -21 -22 23 -26 -27 -28 0
-15 -16 -17 -21 -22 23 -26 -27 28 0
-15 -16 -17 -21 -22 23 -26 27 -28 0
-15 -16 -17 -21 -22 23 -26 27 28 0
-15 -16 -17 -21 -22 23 26 -27 -28 0
-15 -16 -17 -21 -22 23 26 -27 28 0
-15 -16 -17 -21 -22 23 26 27 -28 0
-15 -16 -17 -21 -22 23 26 27 28 0
-15 -16 -17 21 -22 -23 -26 -27 -28 0
-15 -16 -17 21 -22 -23 -26 -27 28 0
-15 -16 -17 21 -22 -23 -26 27 -28 0
-15 -16 -17 21 -22 -23 -26 27 28 0
-15 -16 -17 21 -22 -23 26 -27 -28 0
-15 -16 -17 21 -22 -23 26 -27 28 0
-15 -16 -17 21 -22 -23 26 27 -28 0
-15 -16 -17 21 -22 -23 26 27 28 0
-15 -16 -17 21 -22 23 -26 -27 -28 0
-15 -16 -17 21 -22 23 -26 -27 28 0
-15 -16 -17 21 -22 23 -26 27 -28 0
-15 -16 -17 21 -22 23 -26 27 28 0
-15 -16 -17 21 -22 23 26 -27 -28 0
-15 -16 -17 21 -22 23 26 -27 28 0
-15 -16 -17 21 -22 23 26 27 -28 0
-15 -16 -17 21 22 23 26 27 28 0
-15 -16 17 -21 -22 -23 -26 -27 -28 0
-15 -16 17 -21 -22 -23 -26 -27 28 0
-15 -16 17 -21 -22 -23 -26 27 -28 0
-15 -16 17 -21 -22 -23 -26 27 28 0
-15 -16 17 -21 -22 -23 26 -27 -28 0
-15 -16 17 -21 -22 -23 26 -27 28 0
-15 -16 17 -21 -22 -23 26 27 -28 0
-15 -16 17 -21 -22 -23 26 27 28 0
-15 -16 17 -21 -22 23 -26 -27 -28 0
-15 -16 17 -21 -22 23 -26 -27 28 0
-15 -16 17 -21 -22 23 -26 27 -28 0
-15 -16 17 -21 -22 23 -26 27 28 0
-15 -16 17 -21 -22 23 26 -27 -28 0
-15 -16 17 -21 -22 23 26 -27 28 0
-15 -16 17 -21 -22 23 26 27 -28 0
-15 -16 17 -21 22 23 26 27 28 0
-15 -16 17 21 -22 -23 -26 -27 -28 0
-15 -16 17 21 -22 -23 -26 -27 28 0
-15 -16 17 21 -22 -23 -26 27 -28 0
-15 -16 17 21 -22 -23 -26 27 28 0
-15 -16 17 21 -22 -23 26 -27 -28 0
-15 -16 17 21 -22 -23 26 -27 28 0
-15 -16 17 21 -22 -23 26 27 -28 0
-15 -16 17 21 -22 23 -26 -27 -28 0
-15 -16 17 21 -22 23 -26 -27 28 0
-15 -16 17 21 -22 23 -26 27 -28 0
-15 -16 17 21 -22 23 26 -27 -28 0
-15 -16 17 21 22 -23 26 27 28 0
-15 -16 17 21 22 23 -26 27 28 0
-15 -16 17 21 22 23 26 -27 28 0
-15 -16 17 21 22 23 26 27 -28 0
-15 16 -17 -21 -22 -23 -26 -27 -28 0
-15 16 -17 -21 -22 -23 -26 -27 28 0
-15 16 -17 -21 -22 -23 -26 27 -28 0
-15 16 -17 -21 -22 -23 -26 27 28 0
-15 16 -17 -21 -22 -23 26 -27 -28 0
-15 16 -17 -21 -22 -23 26 -27 28 0
-15 16 -17 -21 -22 -23 26 27 -28 0
-15 16 -17 -21 -22 -23 26 27 28 0
-15 16 -17 -21 -22 23 -26 -27 -28 0
-15 16 -17 -21 -22 23 -26 -27 28 0
-15 16 -17 -21 -22 23 -26 27 -28 0
-15 16 -17 -21 -22 23 -26 27 28 0
-15 16 -17 -21 -22 23 26 -27 -28 0
-15 16 -17 -21 -22 23 26 -27 28 0
-15 16 -17 -21 -22 23 26 27 -28 0
-15 16 -17 -21 22 23 26 27 28 0
-15 16 -17 21 -22 -23 -26 -27 -28 0
-15 16 -17 21 -22 -23 -26 -27 28 0
-15 16 -17 21 -22 -23 -26 27 -28 0
-15 16 -17 21 -22 -23 -26 27 28 0
-15 16 -17 21 -22 -23 26 -27 -28 0
-15 16 -17 21 -22 -23 26 -27 28 0
-15 16 -17 21 -22 -23 26 27 -28 0
-15 16 -17 21 -22 23 -26 -27 -28 0
-15 16 -17 21 -22 23 -26 -27 28 0
-15 16 -17 21 -22 23 -26 27 -28 0
-15 16 -17 21 -22 23 26 -27 -28 0
-15 16 -17 21 22 -23 26 27 28 0
-15 16 -17 21 22 23 -26 27 28 0
-15 16 -17 21 22 23 26 -27 28 0
-15 16 -17 21 22 23 26 27 -28 0
-15 16 17 -21 -22 -23 -26 -27 -28 0
-15 16 17 -21 -22 -23 -26 -27 28 0
-15 16 17 -21 -22 -23 -26 27 -28 0
-15 16 17 -21 -22 -23 -26 27 28 0
-15 16 17 -21 -22 -23 26 -27 -28 0
-15 16 17 -21 -22 -23 26 -27 28 0
-15 16 17 -21 -22 -23 26 27 -28 0
-15 16 17 -21 -22 23 -26 -27 -28 0
-15 16 17 -21 -22 23 -26 -27 28 0
-15 16 17 -21 -22 23 -26 27 -28 0
-15 16 17 -21 -22 23 26 -27 -28 0
-15 16 17 -21 22 -23 26 27 28 0
-15 16 17 -21 22 23 -26 27 28 0
-15 16 17 -21 22 23 26 -27 28 0
-15 16 17 -21 22 23 26 27 -28 0
-15 16 17 21 -22 -23 -26 -27 -28 0
-15 16 17 21 -22 -23 -26 -27 28 0
-15 16 17 21 -22 -23 -26 27 -28 0
-15 16 17 21 -22 -23 26 -27 -28 0
-15 16 17 21 -22 23 -26 -27 -28 0
-15 16 17 21 -22 23 26 27 28 0
-15 16 17 21 22 -23 -26 27 28 0
-15 16 17 21 22 -23 26 -27 28 0
-15 16 17 21 22 -23 26 27 -28 0
-15 16 17 21 22 23 -26 -27 28 0
-15 16 17 21 22 23 -26 27 -28 0
-15 16 17 21 22 23 26 -27 -28 0
-14 -15 -16 -20 -21 -22 -25 -26 -27 0
-14 -15 -16 -20 -21 -22 -25 -26 27 0
-14 -15 -16 -20 -21 -22 -25 26 -27 0
-14 -15 -16 -20 -21 -22 -25 26 27 0
-14 -15 -16 -20 -21 -22 25 -26 -27 0
-14 -15 -16 -20 -21 -22 25 -26 27 0
-14 -15 -16 -20 -21 -22 25 26 -27 0
-14 -15 -16 -20 -21 -22 25 26 27 0
-14 -15 -16 -20 -21 22 -25 -26 -27 0
-14 -15 -16 -20 -21 22 -25 -26 27 0
-14 -15 -16 -20 -21 22 -25 26 -27 0
-14 -15 -16 -20 -21 22 -25 26 27 0
-14 -15 -16 -20 -21 22 25 -26 -27 0
-14 -15 -16 -20 -21 22 25 -26 27 0
-14 -15 -16 -20 -21 22 25 26 -27 0
-14 -15 -16 -20 -21 22 25 26 27 0
-14 -15 -16 20 -21 -22 -25 -26 -27 0
-14 -15 -16 20 -21 -22 -25 -26 27 0
-14 -15 -16 20 -21 -22 -25 26 -27 0
-14 -15 -16 20 -21 -22 -25 26 27 0
-14 -15 -16 20 -21 -22 25 -26 -27 0
-14 -15 -16 20 -21 -22 25 -26 27 0
-14 -15 -16 20 -21 -22 25 26 -27 0
-14 -15 -16 20 -21 -22 25 26 27 0
-14 -15 -16 20 -21 22 -25 -26 -27 0
-14 -15 -16 20 -21 22 -25 -26 27 0
-14 -15 -16 20 -21 22 -25 26 -27 0
-14 -15 -16 20 -21 22 -25 26 27 0
-14 -15 -16 20 -21 22 25 -26 -27 0
-14 -15 -16 20 -21 22 25 -26 27 0
-14 -15 -16 20 -21 22 25 26 -27 0
-14 -15 -16 20 21 22 25 26 27 0
-14 -15 16 -20 -21 -22 -25 -26 -27 0
-14 -15 16 -20 -21 -22 -25 -26 27 0
-14 -15 16 -20 -21 -22 -25 26 -27 0
-14 -15 16 -20 -21 -22 -25 26 27 0
-14 -15 16 -20 -21 -22 25 -26 -27 0
-14 -15 16 -20 -21 -22 25 -26 27 0
-14 -15 16 -20 -21 -22 25 26 -27 0
-14 -15 16 -20 -21 -22 25 26 27 0
-14 -15 16 -20 -21 22 -25 -26 -27 0
-14 -15 16 -20 -21 22 -25 -26 27 0
-14 -15 16 -20 -21 22 -25 26 -27 0
-14 -15 16 -20 -21 22 -25 26 27 0
-14 -15 16 -20 -21 22 25 -26 -27 0
-14 -15 16 -20 -21 22 25 -26 27 0
-14 -15 16 -20 -21 22 25 26 -27 0
-14 -15 16 -20 21 22 25 26 27 0
-14 -15 16 20 -21 -22 -25 -26 -27 0
-14 -15 16 20 -21 -22 -25 -26 27 0
-14 -15 16 20 -21 -22 -25 26 -27 0
-14 -15 16 20 -21 -22 -25 26 27 0
-14 -15 16 20 -21 -22 25 -26 -27 0
-14 -15 16 20 -21 -22 25 -26 27 0
-14 -15 16 20 -21 -22 25 26 -27 0
-14 -15 16 20 -21 22 -25 -26 -27 0
-14 -15 16 20 -21 22 -25 -26 27 0
-14 -15 16 20 -21 22 -25 26 -27 0
-14 -15 16 20 -21 22 25 -26 -27 0
-14 -15 16 20 21 -22 25 26 27 0
-14 -15 16 20 21 22 -25 26 27 0
-14 -15 16 20 21 22 25 -26 27 0
-14 -15 16 20 21 22 25 26 -27 0
-14 15 -16 -20 -21 -22 -25 -26 -27 0
-14 15 -16 -20 -21 -22 -25 -26 27 0
-14 15 -16 -20 -21 -22 -25 26 -27 0
-14 15 -16 -20 -21 -22 -25 26 27 0
-14 15 -16 -20 -21 -22 25 -26 -27 0
-14 15 -16 -20 -21 -22 25 -26 27 0
-14 15 -16 -20 -21 -22 25 26 -27 0
-14 15 -16 -20 -21 -22 25 26 27 0
-14 15 -16 -20 -21 22 -25 -26 -27 0
-14 15 -16 -20 -21 22 -25 -26 27 0
-14 15 -16 -20 -21 22 -25 26 -27 0
-14 15 -16 -20 -21 22 -25 26 27 0
-14 15 -16 -20 -21 22 25 -26 -27 0
-14 15 -16 -20 -21 22 25 -26 27 0
-14 15 -16 -20 -21 22 25 26 -27 0
-14 15 -16 -20 21 22 25 26 27 0
-14 15 -16 20 -21 -22 -25 -26 -27 0
-14 15 -16 20 -21 -22 -25 -26 27 0
-14 15 -16 20 -21 -22 -25 26 -27 0
-14 15 -16 20 -21 -22 -25 26 27 0
-14 15 -16 20 -21 -22 25 -26 -27 0
-14 15 -16 20 -21 -22 25 -26 27 0
-14 15 -16 20 -21 -22 25 26 -27 0
-14 15 -16 20 -21 22 -25 -26 -27 0
-14 15 -16 20 -21 22 -25 -26 27 0
-14 15 -16 20 -21 22 -25 26 -27 0
-14 15 -16 20 -21 22 25 -26 -27 0
-14 15 -16 20 21 -22 25 26 27 0
-14 15 -16 20 21 22 -25 26 27 0
-14 15 -16 20 21 22 25 -26 27 0
-14 15 -16 20 21 22 25 26 -27 0
-14 15 16 -20 -21 -22 -25 -26 -27 0
-14 15 16 -20 -21 -22 -25 -26 27 0
-14 15 16 -20 -21 -22 -25 26 -27 0
-14 15 16 -20 -21 -22 -25 26 27 0
-14 15 16 -20 -21 -22 25 -26 -27 0
-14 15 16 -20 -21 -22 25 -26 27 0
-14 15 16 -20 -21 -22 25 26 -27 0
-14 15 16 -20 -21 22 -25 -26 -27 0
-14 15 16 -20 -21 22 -25 -26 27 0
-14 15 16 -20 -21 22 -25 26 -27 0
-14 15 16 -20 -21 22 25 -26 -27 0
-14 15 16 -20 21 -22 25 26 27 0
-14 15 16 -20 21 22 -25 26 27 0
-14 15 16 -20 21 22 25 -26 27 0
-14 15 16 -20 21 22 25 26 -27 0
-14 15 16 20 -21 -22 -25 -26 -27 0
-14 15 16 20 -21 -22 -25 -26 27 0
-14 15 16 20 -21 -22 -25 26 -27 0
-14 15 16 20 -21 -22 25 -26 -27 0
-14 15 16 20 -21 22 -25 -26 -27 0
-14 15 16 20 -21 22 25 26 27 0
-14 15 16 20 21 -22 -25 26 27 0
-14 15 16 20 21 -22 25 -26 27 0
-14 15 16 20 21 -22 25 26 -27 0
-14 15 16 20 21 22 -25 -26 27 0
-14 15 16 20 21 22 -25 26 -27 0
-14 15 16 20 21 22 25 -26 -27 0
-13 -18 -19 -24 0
-13 -18 -19 24 0
-13 -14 -18 -19 -20 -24 -25 0
-13 -14 -18 -19 -20 -24 25 0
-13 -14 -18 -19 -20 24 -25 0
-13 -14 -18 -19 -20 24 25 0
-13 -14 -18 -19 20 -24 -25 0
-13 -14 -18 -19 20 -24 25 0
-13 -14 -18 -19 20 24 -25 0
-13 -14 -18 -19 20 24 25 0
-13 -14 -18 19 20 24 25 0
-13 -14 -15 -19 -20 -21 -24 -25 -26 0
-13 -14 -15 -19 -20 -21 -24 -25 26 0
-13 -14 -15 -19 -20 -21 -24 25 -26 0
-13 -14 -15 -19 -20 -21 -24 25 26 0
-13 -14 -15 -19 -20 -21 24 -25 -26 0
-13 -14 -15 -19 -20 -21 24 -25 26 0
-13 -14 -15 -19 -20 -21 24 25 -26 0
-13 -14 -15 -19 -20 -21 24 25 26 0
-13 -14 -15 -19 -20 21 -24 -25 -26 0
-13 -14 -15 -19 -20 21 -24 -25 26 0
-13 -14 -15 -19 -20 21 -24 25 -26 0
-13 -14 -15 -19 -20 21 -24 25 26 0
-13 -14 -15 -19 -20 21 24 -25 -26 0
-13 -14 -15 -19 -20 21 24 -25 26 0
-13 -14 -15 -19 -20 21 24 25 -26 0
-13 -14 -15 -19 -20 21 24 25 26 0
-13 -14 -15 19 -20 -21 -24 -25 -26 0
-13 -14 -15 19 -20 -21 -24 -25 26 0
-13 -14 -15 19 -20 -21 -24 25 -26 0
-13 -14 -15 19 -20 -21 -24 25 26 0
-13 -14 -15 19 -20 -21 24 -25 -26 0
-13 -14 -15 19 -20 -21 24 -25 26 0
-13 -14 -15 19 -20 -21 24 25 -26 0
-13 -14 -15 19 -20 -21 24 25 26 0
-13 -14 -15 19 -20 21 -24 -25 -26 0
-13 -14 -15 19 -20 21 -24 -25 26 0
-13 -14 -15 19 -20 21 -24 25 -26 0
-13 -14 -15 19 -20 21 -24 25 26 0
-13 -14 -15 19 -20 21 24 -25 -26 0
-13 -14 -15 19 -20 21 24 -25 26 0
-13 -14 -15 19 -20 21 24 25 -26 0
-13 -14 -15 19 20 21 24 25 26 0
-13 -14 15 -19 -20 -21 -24 -25 -26 0
-13 -14 15 -19 -20 -21 -24 -25 26 0
-13 -14 15 -19 -20 -21 -24 25 -26 0
-13 -14 15 -19 -20 -21 -24 25 26 0
-13 -14 15 -19 -20 -21 24 -25 -26 0
-13 -14 15 -19 -20 -21 24 -25 26 0
-13 -14 15 -19 -20 -21 24 25 -26 0
-13 -14 15 -19 -20 -21 24 25 26 0
-13 -14 15 -19 -20 21 -24 -25 -26 0
-13 -14 15 -19 -20 21 -24 -25 26 0
-13 -14 15 -19 -20 21 -24 25 -26 0
-13 -14 15 -19 -20 21 -24 25 26 0
-13 -14 15 -19 -20 21 24 -25 -26 0
-13 -14 15 -19 -20 21 24 -25 26 0
-13 -14 15 -19 -20 21 24 25 -26 0
-13 -14 15 -19 20 21 24 25 26 0
-13 -14 15 19 -20 -21 -24 -25 -26 0
-13 -14 15 19 -20 -21 -24 -25 26 0
-13 -14 15 19 -20 -21 -24 25 -26 0
-13 -14 15 19 -20 -21 -24 25 26 0
-13 -14 15 19 -20 -21 24 -25 -26 0
-13 -14 15 19 -20 -21 24 -25 26 0
-13 -14 15 19 -20 -21 24 25 -26 0
-13 -14 15 19 -20 21 -24 -25 -26 0
-13 -14 15 19 -20 21 -24 -25 26 0
-13 -14 15 19 -20 21 -24 25 -26 0
-13 -14 15 19 -20 21 24 -25 -26 0
-13 -14 15 19 20 -21 24 25 26 0
-13 -14 15 19 20 21 -24 25 26 0
-13 -14 15 19 20 21 24 -25 26 0
-13 -14 15 19 20 21 24 25 -26 0
-13 -14 18 -19 -20 -24 -25 0
-13 -14 18 -19 -20 -24 25 0
-13 -14 18 -19 -20 24 -25 0
-13 -14 18 -19 -20 24 25 0
-13 -14 18 -19 20 -24 -25 0
-13 -14 18 -19 20 -24 25 0
-13 -14 18 -19 20 24 -25 0
-13 -14 18 19 -20 24 25 0
-13 -14 18 19 20 -24 25 0
-13 -14 18 19 20 24 -25 0
-13 14 -18 -19 -20 -24 -25 0
-13 14 -18 -19 -20 -24 25 0
-13 14 -18 -19 -20 24 -25 0
-13 14 -18 -19 -20 24 25 0
-13 14 -18 -19 20 -24 -25 0
-13 14 -18 -19 20 -24 25 0
-13 14 -18 -19 20 24 -25 0
-13 14 -18 19 -20 24 25 0
-13 14 -18 19 20 -24 25 0
-13 14 -18 19 20 24 -25 0
-13 14 -15 -19 -20 -21 -24 -25 -26 0
-13 14 -15 -19 -20 -21 -24 -25 26 0
-13 14 -15 -19 -20 -21 -24 25 -26 0
-13 14 -15 -19 -20 -21 -24 25 26 0
-13 14 -15 -19 -20 -21 24 -25 -26 0
-13 14 -15 -19 -20 -21 24 -25 26 0
-13 14 -15 -19 -20 -21 24 25 -26 0
-13 14 -15 -19 -20 -21 24 25 26 0
-13 14 -15 -19 -20 21 -24 -25 -26 0
-13 14 -15 -19 -20 21 -24 -25 26 0
-13 14 -15 -19 -20 21 -24 25 -26 0
-13 14 -15 -19 -20 21 -24 25 26 0
-13 14 -15 -19 -20 21 24 -25 -26 0
-13 14 -15 -19 -20 21 24 -25 26 0
-13 14 -15 -19 -20 21 24 25 -26 0
-13 14 -15 -19 20 21 24 25 26 0
-13 14 -15 19 -20 -21 -24 -25 -26 0
-13 14 -15 19 -20 -21 -24 -25 26 0
-13 14 -15 19 -20 -21 -24 25 -26 0
-13 14 -15 19 -20 -21 -24 25 26 0
-13 14 -15 19 -20 -21 24 -25 -26 0
-13 14 -15 19 -20 -21 24 -25 26 0
-13 14 -15 19 -20 -21 24 25 -26 0
-13 14 -15 19 -20 21 -24 -25 -26 0
-13 14 -15 19 -20 21 -24 -25 26 0
-13 14 -15 19 -20 21 -24 25 -26 0
-13 14 -15 19 -20 21 24 -25 -26 0
-13 14 -15 19 20 -21 24 25 26 0
-13 14 -15 19 20 21 -24 25 26 0
-13 14 -15 19 20 21 24 -25 26 0
-13 14 -15 19 20 21 24 25 -26 0
-13 14 15 -19 -20 -21 -24 -25 -26 0
-13 14 15 -19 -20 -21 -24 -25 26 0
-13 14 15 -19 -20 -21 -24 25 -26 0
-13 14 15 -19 -20 -21 -24 25 26 0
-13 14 15 -19 -20 -21 24 -25 -26 0
-13 14 15 -19 -20 -21 24 -25 26 0
-13 14 15 -19 -20 -21 24 25 -26 0
-13 14 15 -19 -20 21 -24 -25 -26 0
-13 14 15 -19 -20 21 -24 -25 26 0
-13 14 15 -19 -20 21 -24 25 -26 0
-13 14 15 -19 -20 21 24 -25 -26 0
-13 14 15 -19 20 -21 24 25 26 0
-13 14 15 -19 20 21 -24 25 26 0
-13 14 15 -19 20 21 24 -25 26 0
-13 14 15 -19 20 21 24 25 -26 0
-13 14 15 19 -20 -21 -24 -25 -26 0
-13 14 15 19 -20 -21 -24 -25 26 0
-13 14 15 19 -20 -21 -24 25 -26 0
-13 14 15 19 -20 -21 24 -25 -26 0
-13 14 15 19 -20 21 -24 -25 -26 0
-13 14 15 19 -20 21 24 25 26 0
-13 14 15 19 20 -21 -24 25 26 0
-13 14 15 19 20 -21 24 -25 26 0
-13 14 15 19 20 -21 24 25 -26 0
-13 14 15 19 20 21 -24 -25 26 0
-13 14 15 19 20 21 -24 25 -26 0
-13 14 15 19 20 21 24 -25 -26 0
-13 14 18 -19 -20 -24 -25 0
-13 14 18 -19 -20 -24 25 0
-13 14 18 -19 -20 24 -25 0
-13 14 18 -19 20 -24 -25 0
-13 14 18 19 -20 -24 25 0
-13 14 18 19 -20 24 -25 0
-13 14 18 19 20 -24 -25 0
-13 18 19 -24 0
-11 -12 -16 -17 -22 -23 0
-11 -12 -16 -17 -22 23 0
-11 -12 -16 -17 22 -23 0
-11 -12 -16 -17 22 23 0
-11 -12 16 -17 -22 -23 0
-11 -12 16 -17 -22 23 0
-11 -12 16 -17 22 -23 0
-11 -12 16 -17 22 23 0
-11 -12 16 17 22 23 0
-11 12 -16 -17 -22 -23 0
-11 12 -16 -17 -22 23 0
-11 12 -16 -17 22 -23 0
-11 12 -16 17 -22 23 0
-11 12 16 -17 -22 -23 0
-11 12 16 -17 22 -23 0
-11 12 16 17 22 -23 0
-10 -11 -12 -15 -16 -17 -21 -22 -23 0
-10 -11 -12 -15 -16 -17 -21 -22 23 0
-10 -11 -12 -15 -16 -17 -21 22 -23 0
-10 -11 -12 -15 -16 -17 -21 22 23 0
-10 -11 -12 -15 -16 -17 21 -22 -23 0
-10 -11 -12 -15 -16 -17 21 -22 23 0
-10 -11 -12 -15 -16 -17 21 22 -23 0
-10 -11 -12 -15 -16 -17 21 22 23 0
-10 -11 -12 -15 -16 17 -21 -22 -23 0
-10 -11 -12 -15 -16 17 -21 -22 23 0
-10 -11 -12 -15 -16 17 -21 22 -23 0
-10 -11 -12 -15 -16 17 -21 22 23 0
-10 -11 -12 -15 -16 17 21 -22 -23 0
-10 -11 -12 -15 -16 17 21 -22 23 0
-10 -11 -12 -15 -16 17 21 22 -23 0
-10 -11 -12 -15 -16 17 21 22 23 0
-10 -11 -12 15 -16 -17 -21 -22 -23 0
-10 -11 -12 15 -16 -17 -21 -22 23 0
-10 -11 -12 15 -16 -17 -21 22 -23 0
-10 -11 -12 15 -16 -17 -21 22 23 0
-10 -11 -12 15 -16 -17 21 -22 -23 0
-10 -11 -12 15 -16 -17 21 -22 23 0
-10 -11 -12 15 -16 -17 21 22 -23 0
-10 -11 -12 15 -16 -17 21 22 23 0
-10 -11 -12 15 -16 17 -21 -22 -23 0
-10 -11 -12 15 -16 17 -21 -22 23 0
-10 -11 -12 15 -16 17 -21 22 -23 0
-10 -11 -12 15 -16 17 -21 22 23 0
-10 -11 -12 15 -16 17 21 -22 -23 0
-10 -11 -12 15 -16 17 21 -22 23 0
-10 -11 -12 15 -16 17 21 22 -23 0
-10 -11 -12 15 16 17 21 22 23 0
-10 -11 12 -15 -16 -17 -21 -22 -23 0
-10 -11 12 -15 -16 -17 -21 -22 23 0
-10 -11 12 -15 -16 -17 -21 22 -23 0
-10 -11 12 -15 -16 -17 -21 22 23 0
-10 -11 12 -15 -16 -17 21 -22 -23 0
-10 -11 12 -15 -16 -17 21 -22 23 0
-10 -11 12 -15 -16 -17 21 22 -23 0
-10 -11 12 -15 -16 -17 21 22 23 0
-10 -11 12 -15 -16 17 -21 -22 -23 0
-10 -11 12 -15 -16 17 -21 -22 23 0
-10 -11 12 -15 -16 17 -21 22 -23 0
-10 -11 12 -15 -16 17 -21 22 23 0
-10 -11 12 -15 -16 17 21 -22 -23 0
-10 -11 12 -15 -16 17 21 -22 23 0
-10 -11 12 -15 -16 17 21 22 -23 0
-10 -11 12 -15 16 17 21 22 23 0
-10 -11 12 15 -16 -17 -21 -22 -23 0
-10 -11 12 15 -16 -17 -21 -22 23 0
-10 -11 12 15 -16 -17 -21 22 -23 0
-10 -11 12 15 -16 -17 -21 22 23 0
-10 -11 12 15 -16 -17 21 -22 -23 0
-10 -11 12 15 -16 -17 21 -22 23 0
-10 -11 12 15 -16 -17 21 22 -23 0
-10 -11 12 15 -16 17 -21 -22 -23 0
-10 -11 12 15 -16 17 -21 -22 23 0
-10 -11 12 15 -16 17 -21 22 -23 0
-10 -11 12 15 -16 17 21 -22 -23 0
-10 -11 12 15 16 -17 21 22 23 0
-10 -11 12 15 16 17 -21 22 23 0
-10 -11 12 15 16 17 21 -22 23 0
-10 -11 12 15 16 17 21 22 -23 0
-10 11 -12 -15 -16 -17 -21 -22 -23 0
-10 11 -12 -15 -16 -17 -21 -22 23 0
-10 11 -12 -15 -16 -17 -21 22 -23 0
-10 11 -12 -15 -16 -17 -21 22 23 0
-10 11 -12 -15 -16 -17 21 -22 -23 0
-10 11 -12 -15 -16 -17 21 -22 23 0
-10 11 -12 -15 -16 -17 21 22 -23 0
-10 11 -12 -15 -16 -17 21 22 23 0
-10 11 -12 -15 -16 17 -21 -22 -23 0
-10 11 -12 -15 -16 17 -21 -22 23 0
-10 11 -12 -15 -16 17 -21 22 -23 0
-10 11 -12 -15 -16 17 -21 22 23 0
-10 11 -12 -15 -16 17 21 -22 -23 0
-10 11 -12 -15 -16 17 21 -22 23 0
-10 11 -12 -15 -16 17 21 22 -23 0
-10 11 -12 -15 16 17 21 22 23 0
-10 11 -12 15 -16 -17 -21 -22 -23 0
-10 11 -12 15 -16 -17 -21 -22 23 0
-10 11 -12 15 -16 -17 -21 22 -23 0
-10 11 -12 15 -16 -17 -21 22 23 0
-10 11 -12 15 -16 -17 21 -22 -23 0
-10 11 -12 15 -16 -17 21 -22 23 0
-10 11 -12 15 -16 -17 21 22 -23 0
-10 11 -12 15 -16 17 -21 -22 -23 0
-10 11 -12 15 -16 17 -21 -22 23 0
-10 11 -12 15 -16 17 -21 22 -23 0
-10 11 -12 15 -16 17 21 -22 -23 0
-10 11 -12 15 16 -17 21 22 23 0
-10 11 -12 15 16 17 -21 22 23 0
-10 11 -12 15 16 17 21 -22 23 0
-10 11 -12 15 16 17 21 22 -23 0
-10 11 12 -15 -16 -17 -21 -22 -23 0
-10 11 12 -15 -16 -17 -21 -22 23 0
-10 11 12 -15 -16 -17 -21 22 -23 0
-10 11 12 -15 -16 -17 -21 22 23 0
-10 11 12 -15 -16 -17 21 -22 -23 0
-10 11 12 -15 -16 -17 21 -22 23 0
-10 11 12 -15 -16 -17 21 22 -23 0
-10 11 12 -15 -16 17 -21 -22 -23 0
-10 11 12 -15 -16 17 -21 -22 23 0
-10 11 12 -15 -16 17 -21 22 -23 0
-10 11 12 -15 -16 17 21 -22 -23 0
-10 11 12 -15 16 -17 21 22 23 0
-10 11 12 -15 16 17 -21 22 23 0
-10 11 12 -15 16 17 21 -22 23 0
-10 11 12 -15 16 17 21 22 -23 0
-10 11 12 15 -16 -17 -21 -22 -23 0
-10 11 12 15 -16 -17 -21 -22 23 0
-10 11 12 15 -16 -17 -21 22 -23 0
-10 11 12 15 -16 -17 21 -22 -23 0
-10 11 12 15 -16 17 -21 -22 -23 0
-10 11 12 15 -16 17 21 22 23 0
-10 11 12 15 16 -17 -21 22 23 0
-10 11 12 15 16 -17 21 -22 23 0
-10 11 12 15 16 -17 21 22 -23 0
-10 11 12 15 16 17 -21 -22 23 0
-10 11 12 15 16 17 -21 22 -23 0
-10 11 12 15 16 17 21 -22 -23 0
-9 -10 -11 -14 -15 -16 -20 -21 -22 0
-9 -10 -11 -14 -15 -16 -20 -21 22 0
-9 -10 -11 -14 -15 -16 -20 21 -22 0
-9 -10 -11 -14 -15 -16 -20 21 22 0
-9 -10 -11 -14 -15 -16 20 -21 -22 0
-9 -10 -11 -14 -15 -16 20 -21 22 0
-9 -10 -11 -14 -15 -16 20 21 -22 0
-9 -10 -11 -14 -15 -16 20 21 22 0
-9 -10 -11 -14 -15 16 -20 -21 -22 0
-9 -10 -11 -14 -15 16 -20 -21 22 0
-9 -10 -11 -14 -15 16 -20 21 -22 0
-9 -10 -11 -14 -15 16 -20 21 22 0
-9 -10 -11 -14 -15 16 20 -21 -22 0
-9 -10 -11 -14 -15 16 20 -21 22 0
-9 -10 -11 -14 -15 16 20 21 -22 0
-9 -10 -11 -14 -15 16 20 21 22 0
-9 -10 -11 14 -15 -16 -20 -21 -22 0
-9 -10 -11 14 -15 -16 -20 -21 22 0
-9 -10 -11 14 -15 -16 -20 21 -22 0
-9 -10 -11 14 -15 -16 -20 21 22 0
-9 -10 -11 14 -15 -16 20 -21 -22 0
-9 -10 -11 14 -15 -16 20 -21 22 0
-9 -10 -11 14 -15 -16 20 21 -22 0
-9 -10 -11 14 -15 -16 20 21 22 0
-9 -10 -11 14 -15 16 -20 -21 -22 0
-9 -10 -11 14 -15 16 -20 -21 22 0
-9 -10 -11 14 -15 16 -20 21 -22 0
-9 -10 -11 14 -15 16 -20 21 22 0
-9 -10 -11 14 -15 16 20 -21 -22 0
-9 -10 -11 14 -15 16 20 -21 22 0
-9 -10 -11 14 -15 16 20 21 -22 0
-9 -10 -11 14 15 16 20 21 22 0
-9 -10 11 -14 -15 -16 -20 -21 -22 0
-9 -10 11 -14 -15 -16 -20 -21 22 0
-9 -10 11 -14 -15 -16 -20 21 -22 0
-9 -10 11 -14 -15 -16 -20 21 22 0
-9 -10 11 -14 -15 -16 20 -21 -22 0
-9 -10 11 -14 -15 -16 20 -21 22 0
-9 -10 11 -14 -15 -16 20 21 -22 0
-9 -10 11 -14 -15 -16 20 21 22 0
-9 -10 11 -14 -15 16 -20 -21 -22 0
-9 -10 11 -14 -15 16 -20 -21 22 0
-9 -10 11 -14 -15 16 -20 21 -22 0
-9 -10 11 -14 -15 16 -20 21 22 0
-9 -10 11 -14 -15 16 20 -21 -22 0
-9 -10 11 -14 -15 16 20 -21 22 0
-9 -10 11 -14 -15 16 20 21 -22 0
-9 -10 11 -14 15 16 20 21 22 0
-9 -10 11 14 -15 -16 -20 -21 -22 0
-9 -10 11 14 -15 -16 -20 -21 22 0
-9 -10 11 14 -15 -16 -20 21 -22 0
-9 -10 11 14 -15 -16 -20 21 22 0
-9 -10 11 14 -15 -16 20 -21 -22 0
-9 -10 11 14 -15 -16 20 -21 22 0
-9 -10 11 14 -15 -16 20 21 -22 0
-9 -10 11 14 -15 16 -20 -21 -22 0
-9 -10 11 14 -15 16 -20 -21 22 0
-9 -10 11 14 -15 16 -20 21 -22 0
-9 -10 11 14 -15 16 20 -21 -22 0
-9 -10 11 14 15 -16 20 21 22 0
-9 -10 11 14 15 16 -20 21 22 0
-9 -10 11 14 15 16 20 -21 22 0
-9 -10 11 14 15 16 20 21 -22 0
-9 10 -11 -14 -15 -16 -20 -21 -22 0
-9 10 -11 -14 -15 -16 -20 -21 22 0
-9 10 -11 -14 -15 -16 -20 21 -22 0
-9 10 -11 -14 -15 -16 -20 21 22 0
-9 10 -11 -14 -15 -16 20 -21 -22 0
-9 10 -11 -14 -15 -16 20 -21 22 0
-9 10 -11 -14 -15 -16 20 21 -22 0
-9 10 -11 -14 -15 -16 20 21 22 0
-9 10 -11 -14 -15 16 -20 -21 -22 0
-9 10 -11 -14 -15 16 -20 -21 22 0
-9 10 -11 -14 -15 16 -20 21 -22 0
-9 10 -11 -14 -15 16 -20 21 22 0
-9 10 -11 -14 -15 16 20 -21 -22 0
-9 10 -11 -14 -15 16 20 -21 22 0
-9 10 -11 -14 -15 16 20 21 -22 0
-9 10 -11 -14 15 16 20 21 22 0
-9 10 -11 14 -15 -16 -20 -21 -22 0
-9 10 -11 14 -15 -16 -20 -21 22 0
-9 10 -11 14 -15 -16 -20 21 -22 0
-9 10 -11 14 -15 -16 -20 21 22 0
-9 10 -11 14 -15 -16 20 -21 -22 0
-9 10 -11 14 -15 -16 20 -21 22 0
-9 10 -11 14 -15 -16 20 21 -22 0
-9 10 -11 14 -15 16 -20 -21 -22 0
-9 10 -11 14 -15 16 -20 -21 22 0
-9 10 -11 14 -15 16 -20 21 -22 0
-9 10 -11 14 -15 16 20 -21 -22 0
-9 10 -11 14 15 -16 20 21 22 0
-9 10 -11 14 15 16 -20 21 22 0
-9 10 -11 14 15 16 20 -21 22 0
-9 10 -11 14 15 16 20 21 -22 0
-9 10 11 -14 -15 -16 -20 -21 -22 0
-9 10 11 -14 -15 -16 -20 -21 22 0
-9 10 11 -14 -15 -16 -20 21 -22 0
-9 10 11 -14 -15 -16 -20 21 22 0
-9 10 11 -14 -15 -16 20 -21 -22 0
-9 10 11 -14 -15 -16 20 -21 22 0
-9 10 11 -14 -15 -16 20 21 -22 0
-9 10 11 -14 -15 16 -20 -21 -22 0
-9 10 11 -14 -15 16 -20 -21 22 0
-9 10 11 -14 -15 16 -20 21 -22 0
-9 10 11 -14 -15 16 20 -21 -22 0
-9 10 11 -14 15 -16 20 21 22 0
-9 10 11 -14 15 16 -20 21 22 0
-9 10 11 -14 15 16 20 -21 22 0
-9 10 11 -14 15 16 20 21 -22 0
-9 10 11 14 -15 -16 -20 -21 -22 0
-9 10 11 14 -15 -16 -20 -21 22 0
-9 10 11 14 -15 -16 -20 21 -22 0
-9 10 11 14 -15 -16 20 -21 -22 0
-9 10 11 14 -15 16 -20 -21 -22 0
-9 10 11 14 -15 16 20 21 22 0
-9 10 11 14 15 -16 -20 21 22 0
-9 10 11 14 15 -16 20 -21 22 0
-9 10 11 14 15 -16 20 21 -22 0
-9 10 11 14 15 16 -20 -21 22 0
-9 10 11 14 15 16 -20 21 -22 0
-9 10 11 14 15 16 20 -21 -22 0
-8 -13 0
-8 -9 0
-8 -9 -13 -14 0
-8 -9 -13 -14 -18 -19 -20 0
-8 -9 -13 -14 -18 -19 20 0
-8 -9 -13 -14 -18 19 -20 0
-8 -9 -13 -14 -18 19 20 0
-8 -9 -13 -14 18 -19 -20 0
-8 -9 -13 -14 18 -19 20 0
-8 -9 -13 -14 18 19 -20 0
-8 -9 -13 -14 18 19 20 0
-8 -9 -13 14 0
-8 -9 -13 14 -18 -19 -20 0
-8 -9 -13 14 -18 -19 20 0
-8 -9 -13 14 -18 19 -20 0
-8 -9 -13 14 -18 19 20 0
-8 -9 -13 14 18 -19 -20 0
-8 -9 -13 14 18 -19 20 0
-8 -9 -13 14 18 19 -20 0
-8 -9 -10 -13 -14 -15 -19 -20 -21 0
-8 -9 -10 -13 -14 -15 -19 -20 21 0
-8 -9 -10 -13 -14 -15 -19 20 -21 0
-8 -9 -10 -13 -14 -15 -19 20 21 0
-8 -9 -10 -13 -14 -15 19 -20 -21 0
-8 -9 -10 -13 -14 -15 19 -20 21 0
-8 -9 -10 -13 -14 -15 19 20 -21 0
-8 -9 -10 -13 -14 -15 19 20 21 0
-8 -9 -10 -13 -14 15 -19 -20 -21 0
-8 -9 -10 -13 -14 15 -19 -20 21 0
-8 -9 -10 -13 -14 15 -19 20 -21 0
-8 -9 -10 -13 -14 15 -19 20 21 0
-8 -9 -10 -13 -14 15 19 -20 -21 0
-8 -9 -10 -13 -14 15 19 -20 21 0
-8 -9 -10 -13 -14 15 19 20 -21 0
-8 -9 -10 -13 -14 15 19 20 21 0
-8 -9 -10 13 -14 -15 -19 -20 -21 0
-8 -9 -10 13 -14 -15 -19 -20 21 0
-8 -9 -10 13 -14 -15 -19 20 -21 0
-8 -9 -10 13 -14 -15 -19 20 21 0
-8 -9 -10 13 -14 -15 19 -20 -21 0
-8 -9 -10 13 -14 -15 19 -20 21 0
-8 -9 -10 13 -14 -15 19 20 -21 0
-8 -9 -10 13 -14 -15 19 20 21 0
-8 -9 -10 13 -14 15 -19 -20 -21 0
-8 -9 -10 13 -14 15 -19 -20 21 0
-8 -9 -10 13 -14 15 -19 20 -21 0
-8 -9 -10 13 -14 15 -19 20 21 0
-8 -9 -10 13 -14 15 19 -20 -21 0
-8 -9 -10 13 -14 15 19 -20 21 0
-8 -9 -10 13 -14 15 19 20 -21 0
-8 -9 -10 13 14 15 19 20 21 0
-8 -9 10 -13 -14 -15 -19 -20 -21 0
-8 -9 10 -13 -14 -15 -19 -20 21 0
-8 -9 10 -13 -14 -15 -19 20 -21 0
-8 -9 10 -13 -14 -15 -19 20 21 0
-8 -9 10 -13 -14 -15 19 -20 -21 0
-8 -9 10 -13 -14 -15 19 -20 21 0
-8 -9 10 -13 -14 -15 19 20 -21 0
-8 -9 10 -13 -14 -15 19 20 21 0
-8 -9 10 -13 -14 15 -19 -20 -21 0
-8 -9 10 -13 -14 15 -19 -20 21 0
-8 -9 10 -13 -14 15 -19 20 -21 0
-8 -9 10 -13 -14 15 -19 20 21 0
-8 -9 10 -13 -14 15 19 -20 -21 0
-8 -9 10 -13 -14 15 19 -20 21 0
-8 -9 10 -13 -14 15 19 20 -21 0
-8 -9 10 -13 14 15 19 20 21 0
-8 -9 10 13 -14 -15 -19 -20 -21 0
-8 -9 10 13 -14 -15 -19 -20 21 0
-8 -9 10 13 -14 -15 -19 20 -21 0
-8 -9 10 13 -14 -15 -19 20 21 0
-8 -9 10 13 -14 -15 19 -20 -21 0
-8 -9 10 13 -14 -15 19 -20 21 0
-8 -9 10 13 -14 -15 19 20 -21 0
-8 -9 10 13 -14 15 -19 -20 -21 0
-8 -9 10 13 -14 15 -19 -20 21 0
-8 -9 10 13 -14 15 -19 20 -21 0
-8 -9 10 13 -14 15 19 -20 -21 0
-8 -9 10 13 14 -15 19 20 21 0
-8 -9 10 13 14 15 -19 20 21 0
-8 -9 10 13 14 15 19 -20 21 0
-8 -9 10 13 14 15 19 20 -21 0
-8 -9 13 -14 0
-8 -9 13 14 18 19 20 0
-8 9 -13 -14 0
-8 9 -13 -14 -18 -19 -20 0
-8 9 -13 -14 -18 -19 20 0
-8 9 -13 -14 -18 19 -20 0
-8 9 -13 -14 -18 19 20 0
-8 9 -13 -14 18 -19 -20 0
-8 9 -13 -14 18 -19 20 0
-8 9 -13 -14 18 19 -20 0
-8 9 -13 14 -18 -19 -20 0
-8 9 -13 14 -18 -19 20 0
-8 9 -13 14 -18 19 -20 0
-8 9 -13 14 18 -19 -20 0
-8 9 -10 -13 -14 -15 -19 -20 -21 0
-8 9 -10 -13 -14 -15 -19 -20 21 0
-8 9 -10 -13 -14 -15 -19 20 -21 0
-8 9 -10 -13 -14 -15 -19 20 21 0
-8 9 -10 -13 -14 -15 19 -20 -21 0
-8 9 -10 -13 -14 -15 19 -20 21 0
-8 9 -10 -13 -14 -15 19 20 -21 0
-8 9 -10 -13 -14 -15 19 20 21 0
-8 9 -10 -13 -14 15 -19 -20 -21 0
-8 9 -10 -13 -14 15 -19 -20 21 0
-8 9 -10 -13 -14 15 -19 20 -21 0
-8 9 -10 -13 -14 15 -19 20 21 0
-8 9 -10 -13 -14 15 19 -20 -21 0
-8 9 -10 -13 -14 15 19 -20 21 0
-8 9 -10 -13 -14 15 19 20 -21 0
-8 9 -10 -13 14 15 19 20 21 0
-8 9 -10 13 -14 -15 -19 -20 -21 0
-8 9 -10 13 -14 -15 -19 -20 21 0
-8 9 -10 13 -14 -15 -19 20 -21 0
-8 9 -10 13 -14 -15 -19 20 21 0
-8 9 -10 13 -14 -15 19 -20 -21 0
-8 9 -10 13 -14 -15 19 -20 21 0
-8 9 -10 13 -14 -15 19 20 -21 0
-8 9 -10 13 -14 15 -19 -20 -21 0
-8 9 -10 13 -14 15 -19 -20 21 0
-8 9 -10 13 -14 15 -19 20 -21 0
-8 9 -10 13 -14 15 19 -20 -21 0
-8 9 -10 13 14 -15 19 20 21 0
-8 9 -10 13 14 15 -19 20 21 0
-8 9 -10 13 14 15 19 -20 21 0
-8 9 -10 13 14 15 19 20 -21 0
-8 9 10 -13 -14 -15 -19 -20 -21 0
-8 9 10 -13 -14 -15 -19 -20 21 0
-8 9 10 -13 -14 -15 -19 20 -21 0
-8 9 10 -13 -14 -15 -19 20 21 0
-8 9 10 -13 -14 -15 19 -20 -21 0
-8 9 10 -13 -14 -15 19 -20 21 0
-8 9 10 -13 -14 -15 19 20 -21 0
-8 9 10 -13 -14 15 -19 -20 -21 0
-8 9 10 -13 -14 15 -19 -20 21 0
-8 9 10 -13 -14 15 -19 20 -21 0
-8 9 10 -13 -14 15 19 -20 -21 0
-8 9 10 -13 14 -15 19 20 21 0
-8 9 10 -13 14 15 -19 20 21 0
-8 9 10 -13 14 15 19 -20 21 0
-8 9 10 -13 14 15 19 20 -21 0
-8 9 10 13 -14 -15 -19 -20 -21 0
-8 9 10 13 -14 -15 -19 -20 21 0
-8 9 10 13 -14 -15 -19 20 -21 0
-8 9 10 13 -14 -15 19 -20 -21 0
-8 9 10 13 -14 15 -19 -20 -21 0
-8 9 10 13 -14 15 19 20 21 0
-8 9 10 13 14 -15 -19 20 21 0
-8 9 10 13 14 -15 19 -20 21 0
-8 9 10 13 14 -15 19 20 -21 0
-8 9 10 13 14 15 -19 -20 21 0
-8 9 10 13 14 15 -19 20 -21 0
-8 9 10 13 14 15 19 -20 -21 0
-8 9 13 -14 18 19 20 0
-8 9 13 14 -18 19 20 0
-8 9 13 14 18 -19 20 0
-8 9 13 14 18 19 -20 0
-8 13 18 19 0
-6 -7 -11 -12 -16 -17 0
-6 -7 -11 -12 -16 17 0
-6 -7 -11 -12 16 -17 0
-6 -7 -11 -12 16 17 0
-6 -7 11 -12 -16 -17 0
-6 -7 11 -12 -16 17 0
-6 -7 11 -12 16 -17 0
-6 -7 11 -12 16 17 0
-6 -7 11 12 16 17 0
-6 7 -11 -12 -16 -17 0
-6 7 -11 -12 -16 17 0
-6 7 -11 -12 16 -17 0
-6 7 -11 12 -16 17 0
-6 7 11 -12 -16 -17 0
-6 7 11 -12 16 -17 0
-6 7 11 12 16 -17 0
-5 -8 -9 -10 -13 -14 -15 0
-5 -8 -9 -10 -13 -14 15 0
-5 -8 -9 -10 -13 14 -15 0
-5 -8 -9 -10 -13 14 15 0
-5 -8 -9 -10 13 -14 -15 0
-5 -8 -9 -10 13 -14 15 0
-5 -8 -9 -10 13 14 -15 0
-5 -8 -9 -10 13 14 15 0
-5 -8 -9 10 -13 -14 -15 0
-5 -8 -9 10 -13 -14 15 0
-5 -8 -9 10 -13 14 -15 0
-5 -8 -9 10 -13 14 15 0
-5 -8 -9 10 13 -14 -15 0
-5 -8 -9 10 13 -14 15 0
-5 -8 -9 10 13 14 -15 0
-5 -8 9 10 13 14 15 0
-5 -6 -9 -10 -11 -14 -15 -16 0
-5 -6 -9 -10 -11 -14 -15 16 0
-5 -6 -9 -10 -11 -14 15 -16 0
-5 -6 -9 -10 -11 -14 15 16 0
-5 -6 -9 -10 -11 14 -15 -16 0
-5 -6 -9 -10 -11 14 -15 16 0
-5 -6 -9 -10 -11 14 15 -16 0
-5 -6 -9 -10 -11 14 15 16 0
-5 -6 -9 -10 11 -14 -15 -16 0
-5 -6 -9 -10 11 -14 -15 16 0
-5 -6 -9 -10 11 -14 15 -16 0
-5 -6 -9 -10 11 -14 15 16 0
-5 -6 -9 -10 11 14 -15 -16 0
-5 -6 -9 -10 11 14 -15 16 0
-5 -6 -9 -10 11 14 15 -16 0
-5 -6 -9 10 11 14 15 16 0
-5 -6 -7 -10 -11 -12 -15 -16 -17 0
-5 -6 -7 -10 -11 -12 -15 -16 17 0
-5 -6 -7 -10 -11 -12 -15 16 -17 0
-5 -6 -7 -10 -11 -12 -15 16 17 0
-5 -6 -7 -10 -11 -12 15 -16 -17 0
-5 -6 -7 -10 -11 -12 15 -16 17 0
-5 -6 -7 -10 -11 -12 15 16 -17 0
-5 -6 -7 -10 -11 -12 15 16 17 0
-5 -6 -7 -10 -11 12 -15 -16 -17 0
-5 -6 -7 -10 -11 12 -15 -16 17 0
-5 -6 -7 -10 -11 12 -15 16 -17 0
-5 -6 -7 -10 -11 12 -15 16 17 0
-5 -6 -7 -10 -11 12 15 -16 -17 0
-5 -6 -7 -10 -11 12 15 -16 17 0
-5 -6 -7 -10 -11 12 15 16 -17 0
-5 -6 -7 -10 -11 12 15 16 17 0
-5 -6 -7 10 -11 -12 -15 -16 -17 0
-5 -6 -7 10 -11 -12 -15 -16 17 0
-5 -6 -7 10 -11 -12 -15 16 -17 0
-5 -6 -7 10 -11 -12 -15 16 17 0
-5 -6 -7 10 -11 -12 15 -16 -17 0
-5 -6 -7 10 -11 -12 15 -16 17 0
-5 -6 -7 10 -11 -12 15 16 -17 0
-5 -6 -7 10 -11 -12 15 16 17 0
-5 -6 -7 10 -11 12 -15 -16 -17 0
-5 -6 -7 10 -11 12 -15 -16 17 0
-5 -6 -7 10 -11 12 -15 16 -17 0
-5 -6 -7 10 -11 12 -15 16 17 0
-5 -6 -7 10 -11 12 15 -16 -17 0
-5 -6 -7 10 -11 12 15 -16 17 0
-5 -6 -7 10 -11 12 15 16 -17 0
-5 -6 -7 10 11 12 15 16 17 0
-5 -6 7 -10 -11 -12 -15 -16 -17 0
-5 -6 7 -10 -11 -12 -15 -16 17 0
-5 -6 7 -10 -11 -12 -15 16 -17 0
-5 -6 7 -10 -11 -12 -15 16 17 0
-5 -6 7 -10 -11 -12 15 -16 -17 0
-5 -6 7 -10 -11 -12 15 -16 17 0
-5 -6 7 -10 -11 -12 15 16 -17 0
-5 -6 7 -10 -11 -12 15 16 17 0
-5 -6 7 -10 -11 12 -15 -16 -17 0
-5 -6 7 -10 -11 12 -15 -16 17 0
-5 -6 7 -10 -11 12 -15 16 -17 0
-5 -6 7 -10 -11 12 -15 16 17 0
-5 -6 7 -10 -11 12 15 -16 -17 0
-5 -6 7 -10 -11 12 15 -16 17 0
-5 -6 7 -10 -11 12 15 16 -17 0
-5 -6 7 -10 11 12 15 16 17 0
-5 -6 7 10 -11 -12 -15 -16 -17 0
-5 -6 7 10 -11 -12 -15 -16 17 0
-5 -6 7 10 -11 -12 -15 16 -17 0
-5 -6 7 10 -11 -12 -15 16 17 0
-5 -6 7 10 -11 -12 15 -16 -17 0
-5 -6 7 10 -11 -12 15 -16 17 0
-5 -6 7 10 -11 -12 15 16 -17 0
-5 -6 7 10 -11 12 -15 -16 -17 0
-5 -6 7 10 -11 12 -15 -16 17 0
-5 -6 7 10 -11 12 -15 16 -17 0
-5 -6 7 10 -11 12 15 -16 -17 0
-5 -6 7 10 11 -12 15 16 17 0
-5 -6 7 10 11 12 -15 16 17 0
-5 -6 7 10 11 12 15 -16 17 0
-5 -6 7 10 11 12 15 16 -17 0
-5 -6 9 -10 -11 -14 -15 -16 0
-5 -6 9 -10 -11 -14 -15 16 0
-5 -6 9 -10 -11 -14 15 -16 0
-5 -6 9 -10 -11 -14 15 16 0
-5 -6 9 -10 -11 14 -15 -16 0
-5 -6 9 -10 -11 14 -15 16 0
-5 -6 9 -10 -11 14 15 -16 0
-5 -6 9 -10 11 -14 -15 -16 0
-5 -6 9 -10 11 -14 -15 16 0
-5 -6 9 -10 11 -14 15 -16 0
-5 -6 9 -10 11 14 -15 -16 0
-5 -6 9 10 -11 14 15 16 0
-5 -6 9 10 11 -14 15 16 0
-5 -6 9 10 11 14 -15 16 0
-5 -6 9 10 11 14 15 -16 0
-5 6 -9 -10 -11 -14 -15 -16 0
-5 6 -9 -10 -11 -14 -15 16 0
-5 6 -9 -10 -11 -14 15 -16 0
-5 6 -9 -10 -11 -14 15 16 0
-5 6 -9 -10 -11 14 -15 -16 0
-5 6 -9 -10 -11 14 -15 16 0
-5 6 -9 -10 -11 14 15 -16 0
-5 6 -9 -10 11 -14 -15 -16 0
-5 6 -9 -10 11 -14 -15 16 0
-5 6 -9 -10 11 -14 15 -16 0
-5 6 -9 -10 11 14 -15 -16 0
-5 6 -9 10 -11 14 15 16 0
-5 6 -9 10 11 -14 15 16 0
-5 6 -9 10 11 14 -15 16 0
-5 6 -9 10 11 14 15 -16 0
-5 6 -7 -10 -11 -12 -15 -16 -17 0
-5 6 -7 -10 -11 -12 -15 -16 17 0
-5 6 -7 -10 -11 -12 -15 16 -17 0
-5 6 -7 -10 -11 -12 -15 16 17 0
-5 6 -7 -10 -11 -12 15 -16 -17 0
-5 6 -7 -10 -11 -12 15 -16 17 0
-5 6 -7 -10 -11 -12 15 16 -17 0
-5 6 -7 -10 -11 -12 15 16 17 0
-5 6 -7 -10 -11 12 -15 -16 -17 0
-5 6 -7 -10 -11 12 -15 -16 17 0
-5 6 -7 -10 -11 12 -15 16 -17 0
-5 6 -7 -10 -11 12 -15 16 17 0
-5 6 -7 -10 -11 12 15 -16 -17 0
-5 6 -7 -10 -11 12 15 -16 17 0
-5 6 -7 -10 -11 12 15 16 -17 0
-5 6 -7 -10 11 12 15 16 17 0
-5 6 -7 10 -11 -12 -15 -16 -17 0
-5 6 -7 10 -11 -12 -15 -16 17 0
-5 6 -7 10 -11 -12 -15 16 -17 0
-5 6 -7 10 -11 -12 -15 16 17 0
-5 6 -7 10 -11 -12 15 -16 -17 0
-5 6 -7 10 -11 -12 15 -16 17 0
-5 6 -7 10 -11 -12 15 16 -17 0
-5 6 -7 10 -11 12 -15 -16 -17 0
-5 6 -7 10 -11 12 -15 -16 17 0
-5 6 -7 10 -11 12 -15 16 -17 0
-5 6 -7 10 -11 12 15 -16 -17 0
-5 6 -7 10 11 -12 15 16 17 0
-5 6 -7 10 11 12 -15 16 17 0
-5 6 -7 10 11 12 15 -16 17 0
-5 6 -7 10 11 12 15 16 -17 0
-5 6 7 -10 -11 -12 -15 -16 -17 0
-5 6 7 -10 -11 -12 -15 -16 17 0
-5 6 7 -10 -11 -12 -15 16 -17 0
-5 6 7 -10 -11 -12 -15 16 17 0
-5 6 7 -10 -11 -12 15 -16 -17 0
-5 6 7 -10 -11 -12 15 -16 17 0
-5 6 7 -10 -11 -12 15 16 -17 0
-5 6 7 -10 -11 12 -15 -16 -17 0
-5 6 7 -10 -11 12 -15 -16 17 0
-5 6 7 -10 -11 12 -15 16 -17 0
-5 6 7 -10 -11 12 15 -16 -17 0
-5 6 7 -10 11 -12 15 16 17 0
-5 6 7 -10 11 12 -15 16 17 0
-5 6 7 -10 11 12 15 -16 17 0
-5 6 7 -10 11 12 15 16 -17 0
-5 6 7 10 -11 -12 -15 -16 -17 0
-5 6 7 10 -11 -12 -15 -16 17 0
-5 6 7 10 -11 -12 -15 16 -17 0
-5 6 7 10 -11 -12 15 -16 -17 0
-5 6 7 10 -11 12 -15 -16 -17 0
-5 6 7 10 -11 12 15 16 17 0
-5 6 7 10 11 -12 -15 16 17 0
-5 6 7 10 11 -12 15 -16 17 0
-5 6 7 10 11 -12 15 16 -17 0
-5 6 7 10 11 12 -15 -16 17 0
-5 6 7 10 11 12 -15 16 -17 0
-5 6 7 10 11 12 15 -16 -17 0
-5 6 9 -10 -11 -14 -15 -16 0
-5 6 9 -10 -11 -14 -15 16 0
-5 6 9 -10 -11 -14 15 -16 0
-5 6 9 -10 -11 14 -15 -16 0
-5 6 9 -10 11 -14 -15 -16 0
-5 6 9 -10 11 14 15 16 0
-5 6 9 10 -11 -14 15 16 0
-5 6 9 10 -11 14 -15 16 0
-5 6 9 10 -11 14 15 -16 0
-5 6 9 10 11 -14 -15 16 0
-5 6 9 10 11 -14 15 -16 0
-5 6 9 10 11 14 -15 -16 0
-5 8 -9 -10 -13 -14 -15 0
-5 8 -9 -10 -13 -14 15 0
-5 8 -9 -10 -13 14 -15 0
-5 8 -9 -10 -13 14 15 0
-5 8 -9 -10 13 -14 -15 0
-5 8 -9 -10 13 -14 15 0
-5 8 -9 -10 13 14 -15 0
-5 8 -9 10 -13 -14 -15 0
-5 8 -9 10 -13 -14 15 0
-5 8 -9 10 -13 14 -15 0
-5 8 -9 10 13 -14 -15 0
-5 8 9 -10 13 14 15 0
-5 8 9 10 0
-5 8 9 10 -13 14 15 0
-5 8 9 10 13 -14 15 0
-5 8 9 10 13 14 -15 0
-3 -5 -6 -9 -10 -11 0
-3 -5 -6 -9 -10 11 0
-3 -5 -6 -9 10 -11 0
-3 -5 -6 9 -10 -11 0
-3 -5 6 -9 -10 -11 0
-3 -5 6 9 10 11 0
-3 -4 -6 -7 -11 -12 0
-3 -4 -6 -7 -11 12 0
-3 -4 -6 -7 11 -12 0
-3 -4 -6 -7 11 12 0
-3 -4 -5 -6 -7 -10 -11 -12 0
-3 -4 -5 -6 -7 -10 -11 12 0
-3 -4 -5 -6 -7 -10 11 -12 0
-3 -4 -5 -6 -7 -10 11 12 0
-3 -4 -5 -6 -7 10 -11 -12 0
-3 -4 -5 -6 -7 10 -11 12 0
-3 -4 -5 -6 -7 10 11 -12 0
-3 -4 -5 -6 -7 10 11 12 0
-3 -4 -5 -6 7 -10 -11 -12 0
-3 -4 -5 -6 7 -10 -11 12 0
-3 -4 -5 -6 7 -10 11 -12 0
-3 -4 -5 -6 7 -10 11 12 0
-3 -4 -5 -6 7 10 -11 -12 0
-3 -4 -5 -6 7 10 -11 12 0
-3 -4 -5 -6 7 10 11 -12 0
-3 -4 -5 6 7 10 11 12 0
-3 -4 5 -6 -7 -10 -11 -12 0
-3 -4 5 -6 -7 -10 -11 12 0
-3 -4 5 -6 -7 -10 11 -12 0
-3 -4 5 -6 -7 -10 11 12 0
-3 -4 5 -6 -7 10 -11 -12 0
-3 -4 5 -6 -7 10 -11 12 0
-3 -4 5 -6 -7 10 11 -12 0
-3 -4 5 -6 7 -10 -11 -12 0
-3 -4 5 -6 7 -10 -11 12 0
-3 -4 5 -6 7 -10 11 -12 0
-3 -4 5 -6 7 10 -11 -12 0
-3 -4 5 6 -7 10 11 12 0
-3 -4 5 6 7 -10 11 12 0
-3 -4 5 6 7 10 -11 12 0
-3 -4 5 6 7 10 11 -12 0
-3 -4 6 -7 -11 -12 0
-3 -4 6 -7 -11 12 0
-3 -4 6 -7 11 -12 0
-3 -4 6 -7 11 12 0
-3 -4 6 7 11 12 0
-3 4 -6 -7 -11 -12 0
-3 4 -6 -7 -11 12 0
-3 4 -6 -7 11 -12 0
-3 4 -6 7 -11 12 0
-3 4 -5 -6 -7 -10 -11 -12 0
-3 4 -5 -6 -7 -10 -11 12 0
-3 4 -5 -6 -7 -10 11 -12 0
-3 4 -5 -6 -7 -10 11 12 0
-3 4 -5 -6 -7 10 -11 -12 0
-3 4 -5 -6 -7 10 -11 12 0
-3 4 -5 -6 -7 10 11 -12 0
-3 4 -5 -6 7 -10 -11 -12 0
-3 4 -5 -6 7 -10 -11 12 0
-3 4 -5 -6 7 -10 11 -12 0
-3 4 -5 -6 7 10 -11 -12 0
-3 4 -5 6 -7 10 11 12 0
-3 4 -5 6 7 -10 11 12 0
-3 4 -5 6 7 10 -11 12 0
-3 4 -5 6 7 10 11 -12 0
-3 4 5 -6 -7 -10 -11 -12 0
-3 4 5 -6 -7 -10 -11 12 0
-3 4 5 -6 -7 -10 11 -12 0
-3 4 5 -6 -7 10 -11 -12 0
-3 4 5 -6 7 -10 -11 -12 0
-3 4 5 -6 7 10 11 12 0
-3 4 5 6 -7 -10 11 12 0
-3 4 5 6 -7 10 -11 12 0
-3 4 5 6 -7 10 11 -12 0
-3 4 5 6 7 -10 -11 12 0
-3 4 5 6 7 -10 11 -12 0
-3 4 5 6 7 10 -11 -12 0
-3 4 6 -7 -11 -12 0
-3 4 6 -7 11 -12 0
-3 4 6 7 11 -12 0
-3 5 -6 -9 10 11 0
-3 5 -6 9 -10 11 0
-3 5 -6 9 10 -11 0
-3 5 6 -9 -10 11 0
-3 5 6 -9 10 -11 0
-3 5 6 9 -10 -11 0
-1 -3 0
-1 -2 0
-1 -2 -3 -4 0
-1 -2 -3 -4 -6 -7 0
-1 -2 -3 -4 -6 7 0
-1 -2 -3 -4 -5 -6 -7 0
-1 -2 -3 -4 -5 -6 7 0
-1 -2 -3 -4 -5 6 -7 0
-1 -2 -3 -4 -5 6 7 0
-1 -2 -3 -4 5 -6 -7 0
-1 -2 -3 -4 5 -6 7 0
-1 -2 -3 -4 5 6 -7 0
-1 -2 -3 -4 5 6 7 0
-1 -2 -3 -4 6 -7 0
-1 -2 -3 -4 6 7 0
-1 -2 -3 4 0
-1 -2 -3 4 -5 -6 -7 0
-1 -2 -3 4 -5 -6 7 0
-1 -2 -3 4 -5 6 -7 0
-1 -2 -3 4 -5 6 7 0
-1 -2 -3 4 5 -6 -7 0
-1 -2 -3 4 5 -6 7 0
-1 -2 -3 4 5 6 -7 0
-1 -2 3 -4 0
-1 -2 3 -4 -6 -7 0
-1 -2 3 -4 -6 7 0
-1 -2 3 -4 6 -7 0
-1 -2 3 -4 6 7 0
-1 -2 3 4 5 6 7 0
-1 -2 3 4 6 7 0
-1 2 0
-1 2 -3 -4 0
-1 2 -3 -4 -6 -7 0
-1 2 -3 -4 -6 7 0
-1 2 -3 -4 -5 -6 -7 0
-1 2 -3 -4 -5 -6 7 0
-1 2 -3 -4 -5 6 -7 0
-1 2 -3 -4 -5 6 7 0
-1 2 -3 -4 5 -6 -7 0
-1 2 -3 -4 5 -6 7 0
-1 2 -3 -4 5 6 -7 0
-1 2 -3 -4 6 -7 0
-1 2 -3 4 0
-1 2 -3 4 -6 7 0
-1 2 -3 4 -5 -6 -7 0
-1 2 -3 4 -5 -6 7 0
-1 2 -3 4 -5 6 -7 0
-1 2 -3 4 5 -6 -7 0
-1 2 3 -4 -6 -7 0
-1 2 3 -4 5 6 7 0
-1 2 3 -4 6 -7 0
-1 2 3 4 -5 6 7 0
-1 2 3 4 5 -6 7 0
-1 2 3 4 5 6 -7 0
-1 2 3 4 6 -7 0
-1 3 5 6 0
1 -3 5 6 0
1 -2 -3 -4 0
1 -2 -3 -4 -6 -7 0
1 -2 -3 -4 -6 7 0
1 -2 -3 -4 -5 -6 -7 0
1 -2 -3 -4 -5 -6 7 0
1 -2 -3 -4 -5 6 -7 0
1 -2 -3 -4 -5 6 7 0
1 -2 -3 -4 5 -6 -7 0
1 -2 -3 -4 5 -6 7 0
1 -2 -3 -4 5 6 -7 0
1 -2 -3 -4 6 -7 0
1 -2 -3 -4 6 7 0
1 -2 -3 4 -5 -6 -7 0
1 -2 -3 4 -5 -6 7 0
1 -2 -3 4 -5 6 -7 0
1 -2 -3 4 5 -6 -7 0
1 -2 -3 4 6 7 0
1 -2 3 -4 0
1 -2 3 -4 -6 -7 0
1 -2 3 -4 -6 7 0
1 -2 3 -4 5 6 7 0
1 -2 3 -4 6 -7 0
1 -2 3 4 0
1 -2 3 4 -6 7 0
1 -2 3 4 -5 6 7 0
1 -2 3 4 5 -6 7 0
1 -2 3 4 5 6 -7 0
1 2 -3 -4 -6 -7 0
1 2 -3 -4 -5 -6 -7 0
1 2 -3 -4 -5 -6 7 0
1 2 -3 -4 -5 6 -7 0
1 2 -3 -4 5 -6 -7 0
1 2 -3 -4 6 -7 0
1 2 -3 4 0
1 2 -3 4 -5 -6 -7 0
1 2 -3 4 5 6 7 0
1 2 -3 4 6 -7 0
1 2 3 -4 0
1 2 3 -4 -6 -7 0
1 2 3 -4 -5 6 7 0
1 2 3 -4 5 -6 7 0
1 2 3 -4 5 6 -7 0
1 2 3 -4 6 7 0
1 2 3 4 -6 -7 0
1 2 3 4 -5 -6 7 0
1 2 3 4 -5 6 -7 0
1 2 3 4 5 -6 -7 0
1 3 -5 6 0
1 3 5 -6 0
3 -5 -6 -9 -10 -11 0
3 -5 -6 9 10 11 0
3 -5 6 -9 10 11 0
3 -5 6 9 -10 11 0
3 -5 6 9 10 -11 0
3 -5 6 9 10 11 0
3 -4 -6 -7 -11 -12 0
3 -4 -6 -7 -11 12 0
3 -4 -6 -7 11 -12 0
3 -4 -6 -7 11 12 0
3 -4 -6 7 11 12 0
3 -4 -5 -6 -7 -10 -11 -12 0
3 -4 -5 -6 -7 -10 -11 12 0
3 -4 -5 -6 -7 -10 11 -12 0
3 -4 -5 -6 -7 -10 11 12 0
3 -4 -5 -6 -7 10 -11 -12 0
3 -4 -5 -6 -7 10 -11 12 0
3 -4 -5 -6 -7 10 11 -12 0
3 -4 -5 -6 7 -10 -11 -12 0
3 -4 -5 -6 7 -10 -11 12 0
3 -4 -5 -6 7 -10 11 -12 0
3 -4 -5 -6 7 10 -11 -12 0
3 -4 -5 6 -7 10 11 12 0
3 -4 -5 6 7 -10 11 12 0
3 -4 -5 6 7 10 -11 12 0
3 -4 -5 6 7 10 11 -12 0
3 -4 5 -6 -7 -10 -11 -12 0
3 -4 5 -6 -7 -10 -11 12 0
3 -4 5 -6 -7 -10 11 -12 0
3 -4 5 -6 -7 10 -11 -12 0
3 -4 5 -6 7 -10 -11 -12 0
3 -4 5 -6 7 10 11 12 0
3 -4 5 6 -7 -10 11 12 0
3 -4 5 6 -7 10 -11 12 0
3 -4 5 6 -7 10 11 -12 0
3 -4 5 6 7 -10 -11 12 0
3 -4 5 6 7 -10 11 -12 0
3 -4 5 6 7 10 -11 -12 0
3 -4 6 -7 -11 -12 0
3 -4 6 -7 -11 12 0
3 -4 6 -7 11 -12 0
3 -4 6 7 -11 12 0
3 4 -6 -7 -11 -12 0
3 4 -6 -7 11 -12 0
3 4 -6 7 11 -12 0
3 4 -5 -6 -7 -10 -11 -12 0
3 4 -5 -6 -7 -10 -11 12 0
3 4 -5 -6 -7 -10 11 -12 0
3 4 -5 -6 -7 10 -11 -12 0
3 4 -5 -6 7 -10 -11 -12 0
3 4 -5 -6 7 10 11 12 0
3 4 -5 6 -7 -10 11 12 0
3 4 -5 6 -7 10 -11 12 0
3 4 -5 6 -7 10 11 -12 0
3 4 -5 6 7 -10 -11 12 0
3 4 -5 6 7 -10 11 -12 0
3 4 -5 6 7 10 -11 -12 0
3 4 5 -6 -7 -10 -11 -12 0
3 4 5 -6 -7 10 11 12 0
3 4 5 -6 7 -10 11 12 0
3 4 5 -6 7 10 -11 12 0
3 4 5 -6 7 10 11 -12 0
3 4 5 -6 7 10 11 12 0
3 4 5 6 -7 -10 -11 12 0
3 4 5 6 -7 -10 11 -12 0
3 4 5 6 -7 10 -11 -12 0
3 4 5 6 7 -10 -11 -12 0
3 4 6 -7 -11 -12 0
3 4 6 -7 11 12 0
3 4 6 7 -11 -12 0
3 5 -6 -9 -10 11 0
3 5 -6 -9 10 -11 0
3 5 -6 9 -10 -11 0
3 5 6 -9 -10 -11 0
5 -8 -9 -10 -13 -14 -15 0
5 -8 -9 -10 -13 -14 15 0
5 -8 -9 -10 -13 14 -15 0
5 -8 -9 -10 -13 14 15 0
5 -8 -9 -10 13 -14 -15 0
5 -8 -9 -10 13 -14 15 0
5 -8 -9 -10 13 14 -15 0
5 -8 -9 10 -13 -14 -15 0
5 -8 -9 10 -13 -14 15 0
5 -8 -9 10 -13 14 -15 0
5 -8 -9 10 13 -14 -15 0
5 -8 9 -10 13 14 15 0
5 -8 9 10 0
5 -8 9 10 -13 14 15 0
5 -8 9 10 13 -14 15 0
5 -8 9 10 13 14 -15 0
5 -6 -9 -10 -11 -14 -15 -16 0
5 -6 -9 -10 -11 -14 -15 16 0
5 -6 -9 -10 -11 -14 15 -16 0
5 -6 -9 -10 -11 -14 15 16 0
5 -6 -9 -10 -11 14 -15 -16 0
5 -6 -9 -10 -11 14 -15 16 0
5 -6 -9 -10 -11 14 15 -16 0
5 -6 -9 -10 11 -14 -15 -16 0
5 -6 -9 -10 11 -14 -15 16 0
5 -6 -9 -10 11 -14 15 -16 0
5 -6 -9 -10 11 14 -15 -16 0
5 -6 -9 10 -11 14 15 16 0
5 -6 -9 10 11 -14 15 16 0
5 -6 -9 10 11 14 -15 16 0
5 -6 -9 10 11 14 15 -16 0
5 -6 -7 -10 -11 -12 -15 -16 -17 0
5 -6 -7 -10 -11 -12 -15 -16 17 0
5 -6 -7 -10 -11 -12 -15 16 -17 0
5 -6 -7 -10 -11 -12 -15 16 17 0
5 -6 -7 -10 -11 -12 15 -16 -17 0
5 -6 -7 -10 -11 -12 15 -16 17 0
5 -6 -7 -10 -11 -12 15 16 -17 0
5 -6 -7 -10 -11 -12 15 16 17 0
5 -6 -7 -10 -11 12 -15 -16 -17 0
5 -6 -7 -10 -11 12 -15 -16 17 0
5 -6 -7 -10 -11 12 -15 16 -17 0
5 -6 -7 -10 -11 12 -15 16 17 0
5 -6 -7 -10 -11 12 15 -16 -17 0
5 -6 -7 -10 -11 12 15 -16 17 0
5 -6 -7 -10 -11 12 15 16 -17 0
5 -6 -7 -10 11 12 15 16 17 0
5 -6 -7 10 -11 -12 -15 -16 -17 0
5 -6 -7 10 -11 -12 -15 -16 17 0
5 -6 -7 10 -11 -12 -15 16 -17 0
5 -6 -7 10 -11 -12 -15 16 17 0
5 -6 -7 10 -11 -12 15 -16 -17 0
5 -6 -7 10 -11 -12 15 -16 17 0
5 -6 -7 10 -11 -12 15 16 -17 0
5 -6 -7 10 -11 12 -15 -16 -17 0
5 -6 -7 10 -11 12 -15 -16 17 0
5 -6 -7 10 -11 12 -15 16 -17 0
5 -6 -7 10 -11 12 15 -16 -17 0
5 -6 -7 10 11 -12 15 16 17 0
5 -6 -7 10 11 12 -15 16 17 0
5 -6 -7 10 11 12 15 -16 17 0
5 -6 -7 10 11 12 15 16 -17 0
5 -6 7 -10 -11 -12 -15 -16 -17 0
5 -6 7 -10 -11 -12 -15 -16 17 0
5 -6 7 -10 -11 -12 -15 16 -17 0
5 -6 7 -10 -11 -12 -15 16 17 0
5 -6 7 -10 -11 -12 15 -16 -17 0
5 -6 7 -10 -11 -12 15 -16 17 0
5 -6 7 -10 -11 -12 15 16 -17 0
5 -6 7 -10 -11 12 -15 -16 -17 0
5 -6 7 -10 -11 12 -15 -16 17 0
5 -6 7 -10 -11 12 -15 16 -17 0
5 -6 7 -10 -11 12 15 -16 -17 0
5 -6 7 -10 11 -12 15 16 17 0
5 -6 7 -10 11 12 -15 16 17 0
5 -6 7 -10 11 12 15 -16 17 0
5 -6 7 -10 11 12 15 16 -17 0
5 -6 7 10 -11 -12 -15 -16 -17 0
5 -6 7 10 -11 -12 -15 -16 17 0
5 -6 7 10 -11 -12 -15 16 -17 0
5 -6 7 10 -11 -12 15 -16 -17 0
5 -6 7 10 -11 12 -15 -16 -17 0
5 -6 7 10 -11 12 15 16 17 0
5 -6 7 10 11 -12 -15 16 17 0
5 -6 7 10 11 -12 15 -16 17 0
5 -6 7 10 11 -12 15 16 -17 0
5 -6 7 10 11 12 -15 -16 17 0
5 -6 7 10 11 12 -15 16 -17 0
5 -6 7 10 11 12 15 -16 -17 0
5 -6 9 -10 -11 -14 -15 -16 0
5 -6 9 -10 -11 -14 -15 16 0
5 -6 9 -10 -11 -14 15 -16 0
5 -6 9 -10 -11 14 -15 -16 0
5 -6 9 -10 11 -14 -15 -16 0
5 -6 9 -10 11 14 15 16 0
5 -6 9 10 -11 -14 15 16 0
5 -6 9 10 -11 14 -15 16 0
5 -6 9 10 -11 14 15 -16 0
5 -6 9 10 11 -14 -15 16 0
5 -6 9 10 11 -14 15 -16 0
5 -6 9 10 11 14 -15 -16 0
5 6 -9 -10 -11 -14 -15 -16 0
5 6 -9 -10 -11 -14 -15 16 0
5 6 -9 -10 -11 -14 15 -16 0
5 6 -9 -10 -11 14 -15 -16 0
5 6 -9 -10 11 -14 -15 -16 0
5 6 -9 -10 11 14 15 16 0
5 6 -9 10 -11 -14 15 16 0
5 6 -9 10 -11 14 -15 16 0
5 6 -9 10 -11 14 15 -16 0
5 6 -9 10 11 -14 -15 16 0
5 6 -9 10 11 -14 15 -16 0
5 6 -9 10 11 14 -15 -16 0
5 6 -7 -10 -11 -12 -15 -16 -17 0
5 6 -7 -10 -11 -12 -15 -16 17 0
5 6 -7 -10 -11 -12 -15 16 -17 0
5 6 -7 -10 -11 -12 -15 16 17 0
5 6 -7 -10 -11 -12 15 -16 -17 0
5 6 -7 -10 -11 -12 15 -16 17 0
5 6 -7 -10 -11 -12 15 16 -17 0
5 6 -7 -10 -11 12 -15 -16 -17 0
5 6 -7 -10 -11 12 -15 -16 17 0
5 6 -7 -10 -11 12 -15 16 -17 0
5 6 -7 -10 -11 12 15 -16 -17 0
5 6 -7 -10 11 -12 15 16 17 0
5 6 -7 -10 11 12 -15 16 17 0
5 6 -7 -10 11 12 15 -16 17 0
5 6 -7 -10 11 12 15 16 -17 0
5 6 -7 10 -11 -12 -15 -16 -17 0
5 6 -7 10 -11 -12 -15 -16 17 0
5 6 -7 10 -11 -12 -15 16 -17 0
5 6 -7 10 -11 -12 15 -16 -17 0
5 6 -7 10 -11 12 -15 -16 -17 0
5 6 -7 10 -11 12 15 16 17 0
5 6 -7 10 11 -12 -15 16 17 0
5 6 -7 10 11 -12 15 -16 17 0
5 6 -7 10 11 -12 15 16 -17 0
5 6 -7 10 11 12 -15 -16 17 0
5 6 -7 10 11 12 -15 16 -17 0
5 6 -7 10 11 12 15 -16 -17 0
5 6 7 -10 -11 -12 -15 -16 -17 0
5 6 7 -10 -11 -12 -15 -16 17 0
5 6 7 -10 -11 -12 -15 16 -17 0
5 6 7 -10 -11 -12 15 -16 -17 0
5 6 7 -10 -11 12 -15 -16 -17 0
5 6 7 -10 -11 12 15 16 17 0
5 6 7 -10 11 -12 -15 16 17 0
5 6 7 -10 11 -12 15 -16 17 0
5 6 7 -10 11 -12 15 16 -17 0
5 6 7 -10 11 12 -15 -16 17 0
5 6 7 -10 11 12 -15 16 -17 0
5 6 7 -10 11 12 15 -16 -17 0
5 6 7 10 -11 -12 -15 -16 -17 0
5 6 7 10 -11 -12 15 16 17 0
5 6 7 10 -11 12 -15 16 17 0
5 6 7 10 -11 12 15 -16 17 0
5 6 7 10 -11 12 15 16 -17 0
5 6 7 10 -11 12 15 16 17 0
5 6 7 10 11 -12 -15 -16 17 0
5 6 7 10 11 -12 -15 16 -17 0
5 6 7 10 11 -12 15 -16 -17 0
5 6 7 10 11 12 -15 -16 -17 0
5 6 9 -10 -11 -14 -15 -16 0
5 6 9 -10 -11 14 15 16 0
5 6 9 -10 11 -14 15 16 0
5 6 9 -10 11 14 -15 16 0
5 6 9 -10 11 14 15 -16 0
5 6 9 -10 11 14 15 16 0
5 6 9 10 -11 -14 -15 16 0
5 6 9 10 -11 -14 15 -16 0
5 6 9 10 -11 14 -15 -16 0
5 6 9 10 11 -14 -15 -16 0
5 8 -9 -10 -13 -14 -15 0
5 8 -9 -10 -13 -14 15 0
5 8 -9 -10 -13 14 -15 0
5 8 -9 -10 13 -14 -15 0
5 8 -9 10 0
5 8 -9 10 -13 -14 -15 0
5 8 -9 10 13 14 15 0
5 8 9 -10 0
5 8 9 -10 -13 14 15 0
5 8 9 -10 13 -14 15 0
5 8 9 -10 13 14 -15 0
5 8 9 10 -13 -14 15 0
5 8 9 10 -13 14 -15 0
5 8 9 10 13 -14 -15 0
6 -7 -11 -12 -16 -17 0
6 -7 -11 -12 -16 17 0
6 -7 -11 -12 16 -17 0
6 -7 -11 -12 16 17 0
6 -7 -11 12 16 17 0
6 -7 11 -12 -16 -17 0
6 -7 11 -12 -16 17 0
6 -7 11 -12 16 -17 0
6 -7 11 12 -16 17 0
6 7 -11 -12 -16 -17 0
6 7 -11 -12 16 -17 0
6 7 -11 12 16 -17 0
6 7 11 -12 -16 -17 0
6 7 11 -12 16 17 0
6 7 11 12 -16 -17 0
8 -13 18 19 0
8 -9 -13 -14 -18 -19 -20 0
8 -9 -13 -14 -18 -19 20 0
8 -9 -13 -14 -18 19 -20 0
8 -9 -13 -14 -18 19 20 0
8 -9 -13 -14 18 -19 -20 0
8 -9 -13 -14 18 -19 20 0
8 -9 -13 -14 18 19 -20 0
8 -9 -13 14 -18 -19 -20 0
8 -9 -13 14 -18 -19 20 0
8 -9 -13 14 -18 19 -20 0
8 -9 -13 14 18 -19 -20 0
8 -9 -10 -13 -14 -15 -19 -20 -21 0
8 -9 -10 -13 -14 -15 -19 -20 21 0
8 -9 -10 -13 -14 -15 -19 20 -21 0
8 -9 -10 -13 -14 -15 -19 20 21 0
8 -9 -10 -13 -14 -15 19 -20 -21 0
8 -9 -10 -13 -14 -15 19 -20 21 0
8 -9 -10 -13 -14 -15 19 20 -21 0
8 -9 -10 -13 -14 -15 19 20 21 0
8 -9 -10 -13 -14 15 -19 -20 -21 0
8 -9 -10 -13 -14 15 -19 -20 21 0
8 -9 -10 -13 -14 15 -19 20 -21 0
8 -9 -10 -13 -14 15 -19 20 21 0
8 -9 -10 -13 -14 15 19 -20 -21 0
8 -9 -10 -13 -14 15 19 -20 21 0
8 -9 -10 -13 -14 15 19 20 -21 0
8 -9 -10 -13 14 15 19 20 21 0
8 -9 -10 13 -14 -15 -19 -20 -21 0
8 -9 -10 13 -14 -15 -19 -20 21 0
8 -9 -10 13 -14 -15 -19 20 -21 0
8 -9 -10 13 -14 -15 -19 20 21 0
8 -9 -10 13 -14 -15 19 -20 -21 0
8 -9 -10 13 -14 -15 19 -20 21 0
8 -9 -10 13 -14 -15 19 20 -21 0
8 -9 -10 13 -14 15 -19 -20 -21 0
8 -9 -10 13 -14 15 -19 -20 21 0
8 -9 -10 13 -14 15 -19 20 -21 0
8 -9 -10 13 -14 15 19 -20 -21 0
8 -9 -10 13 14 -15 19 20 21 0
8 -9 -10 13 14 15 -19 20 21 0
8 -9 -10 13 14 15 19 -20 21 0
8 -9 -10 13 14 15 19 20 -21 0
8 -9 10 -13 -14 -15 -19 -20 -21 0
8 -9 10 -13 -14 -15 -19 -20 21 0
8 -9 10 -13 -14 -15 -19 20 -21 0
8 -9 10 -13 -14 -15 -19 20 21 0
8 -9 10 -13 -14 -15 19 -20 -21 0
8 -9 10 -13 -14 -15 19 -20 21 0
8 -9 10 -13 -14 -15 19 20 -21 0
8 -9 10 -13 -14 15 -19 -20 -21 0
8 -9 10 -13 -14 15 -19 -20 21 0
8 -9 10 -13 -14 15 -19 20 -21 0
8 -9 10 -13 -14 15 19 -20 -21 0
8 -9 10 -13 14 -15 19 20 21 0
8 -9 10 -13 14 15 -19 20 21 0
8 -9 10 -13 14 15 19 -20 21 0
8 -9 10 -13 14 15 19 20 -21 0
8 -9 10 13 -14 -15 -19 -20 -21 0
8 -9 10 13 -14 -15 -19 -20 21 0
8 -9 10 13 -14 -15 -19 20 -21 0
8 -9 10 13 -14 -15 19 -20 -21 0
8 -9 10 13 -14 15 -19 -20 -21 0
8 -9 10 13 -14 15 19 20 21 0
8 -9 10 13 14 -15 -19 20 21 0
8 -9 10 13 14 -15 19 -20 21 0
8 -9 10 13 14 -15 19 20 -21 0
8 -9 10 13 14 15 -19 -20 21 0
8 -9 10 13 14 15 -19 20 -21 0
8 -9 10 13 14 15 19 -20 -21 0
8 -9 13 -14 18 19 20 0
8 -9 13 14 0
8 -9 13 14 -18 19 20 0
8 -9 13 14 18 -19 20 0
8 -9 13 14 18 19 -20 0
8 9 -13 -14 -18 -19 -20 0
8 9 -13 -14 -18 -19 20 0
8 9 -13 -14 -18 19 -20 0
8 9 -13 -14 18 -19 -20 0
8 9 -13 14 0
8 9 -13 14 -18 -19 -20 0
8 9 -13 14 18 19 20 0
8 9 -10 -13 -14 -15 -19 -20 -21 0
8 9 -10 -13 -14 -15 -19 -20 21 0
8 9 -10 -13 -14 -15 -19 20 -21 0
8 9 -10 -13 -14 -15 -19 20 21 0
8 9 -10 -13 -14 -15 19 -20 -21 0
8 9 -10 -13 -14 -15 19 -20 21 0
8 9 -10 -13 -14 -15 19 20 -21 0
8 9 -10 -13 -14 15 -19 -20 -21 0
8 9 -10 -13 -14 15 -19 -20 21 0
8 9 -10 -13 -14 15 -19 20 -21 0
8 9 -10 -13 -14 15 19 -20 -21 0
8 9 -10 -13 14 -15 19 20 21 0
8 9 -10 -13 14 15 -19 20 21 0
8 9 -10 -13 14 15 19 -20 21 0
8 9 -10 -13 14 15 19 20 -21 0
8 9 -10 13 -14 -15 -19 -20 -21 0
8 9 -10 13 -14 -15 -19 -20 21 0
8 9 -10 13 -14 -15 -19 20 -21 0
8 9 -10 13 -14 -15 19 -20 -21 0
8 9 -10 13 -14 15 -19 -20 -21 0
8 9 -10 13 -14 15 19 20 21 0
8 9 -10 13 14 -15 -19 20 21 0
8 9 -10 13 14 -15 19 -20 21 0
8 9 -10 13 14 -15 19 20 -21 0
8 9 -10 13 14 15 -19 -20 21 0
8 9 -10 13 14 15 -19 20 -21 0
8 9 -10 13 14 15 19 -20 -21 0
8 9 10 -13 -14 -15 -19 -20 -21 0
8 9 10 -13 -14 -15 -19 -20 21 0
8 9 10 -13 -14 -15 -19 20 -21 0
8 9 10 -13 -14 -15 19 -20 -21 0
8 9 10 -13 -14 15 -19 -20 -21 0
8 9 10 -13 -14 15 19 20 21 0
8 9 10 -13 14 -15 -19 20 21 0
8 9 10 -13 14 -15 19 -20 21 0
8 9 10 -13 14 -15 19 20 -21 0
8 9 10 -13 14 15 -19 -20 21 0
8 9 10 -13 14 15 -19 20 -21 0
8 9 10 -13 14 15 19 -20 -21 0
8 9 10 13 -14 -15 -19 -20 -21 0
8 9 10 13 -14 -15 19 20 21 0
8 9 10 13 -14 15 -19 20 21 0
8 9 10 13 -14 15 19 -20 21 0
8 9 10 13 -14 15 19 20 -21 0
8 9 10 13 -14 15 19 20 21 0
8 9 10 13 14 -15 -19 -20 21 0
8 9 10 13 14 -15 -19 20 -21 0
8 9 10 13 14 -15 19 -20 -21 0
8 9 10 13 14 15 -19 -20 -21 0
8 9 13 -14 0
8 9 13 -14 -18 19 20 0
8 9 13 -14 18 -19 20 0
8 9 13 -14 18 19 -20 0
8 9 13 14 -18 -19 20 0
8 9 13 14 -18 19 -20 0
8 9 13 14 18 -19 -20 0
8 13 -18 19 0
8 13 18 -19 0
9 -10 -11 -14 -15 -16 -20 -21 -22 0
9 -10 -11 -14 -15 -16 -20 -21 22 0
9 -10 -11 -14 -15 -16 -20 21 -22 0
9 -10 -11 -14 -15 -16 -20 21 22 0
9 -10 -11 -14 -15 -16 20 -21 -22 0
9 -10 -11 -14 -15 -16 20 -21 22 0
9 -10 -11 -14 -15 -16 20 21 -22 0
9 -10 -11 -14 -15 -16 20 21 22 0
9 -10 -11 -14 -15 16 -20 -21 -22 0
9 -10 -11 -14 -15 16 -20 -21 22 0
9 -10 -11 -14 -15 16 -20 21 -22 0
9 -10 -11 -14 -15 16 -20 21 22 0
9 -10 -11 -14 -15 16 20 -21 -22 0
9 -10 -11 -14 -15 16 20 -21 22 0
9 -10 -11 -14 -15 16 20 21 -22 0
9 -10 -11 -14 15 16 20 21 22 0
9 -10 -11 14 -15 -16 -20 -21 -22 0
9 -10 -11 14 -15 -16 -20 -21 22 0
9 -10 -11 14 -15 -16 -20 21 -22 0
9 -10 -11 14 -15 -16 -20 21 22 0
9 -10 -11 14 -15 -16 20 -21 -22 0
9 -10 -11 14 -15 -16 20 -21 22 0
9 -10 -11 14 -15 -16 20 21 -22 0
9 -10 -11 14 -15 16 -20 -21 -22 0
9 -10 -11 14 -15 16 -20 -21 22 0
9 -10 -11 14 -15 16 -20 21 -22 0
9 -10 -11 14 -15 16 20 -21 -22 0
9 -10 -11 14 15 -16 20 21 22 0
9 -10 -11 14 15 16 -20 21 22 0
9 -10 -11 14 15 16 20 -21 22 0
9 -10 -11 14 15 16 20 21 -22 0
9 -10 11 -14 -15 -16 -20 -21 -22 0
9 -10 11 -14 -15 -16 -20 -21 22 0
9 -10 11 -14 -15 -16 -20 21 -22 0
9 -10 11 -14 -15 -16 -20 21 22 0
9 -10 11 -14 -15 -16 20 -21 -22 0
9 -10 11 -14 -15 -16 20 -21 22 0
9 -10 11 -14 -15 -16 20 21 -22 0
9 -10 11 -14 -15 16 -20 -21 -22 0
9 -10 11 -14 -15 16 -20 -21 22 0
9 -10 11 -14 -15 16 -20 21 -22 0
9 -10 11 -14 -15 16 20 -21 -22 0
9 -10 11 -14 15 -16 20 21 22 0
9 -10 11 -14 15 16 -20 21 22 0
9 -10 11 -14 15 16 20 -21 22 0
9 -10 11 -14 15 16 20 21 -22 0
9 -10 11 14 -15 -16 -20 -21 -22 0
9 -10 11 14 -15 -16 -20 -21 22 0
9 -10 11 14 -15 -16 -20 21 -22 0
9 -10 11 14 -15 -16 20 -21 -22 0
9 -10 11 14 -15 16 -20 -21 -22 0
9 -10 11 14 -15 16 20 21 22 0
9 -10 11 14 15 -16 -20 21 22 0
9 -10 11 14 15 -16 20 -21 22 0
9 -10 11 14 15 -16 20 21 -22 0
9 -10 11 14 15 16 -20 -21 22 0
9 -10 11 14 15 16 -20 21 -22 0
9 -10 11 14 15 16 20 -21 -22 0
9 10 -11 -14 -15 -16 -20 -21 -22 0
9 10 -11 -14 -15 -16 -20 -21 22 0
9 10 -11 -14 -15 -16 -20 21 -22 0
9 10 -11 -14 -15 -16 -20 21 22 0
9 10 -11 -14 -15 -16 20 -21 -22 0
9 10 -11 -14 -15 -16 20 -21 22 0
9 10 -11 -14 -15 -16 20 21 -22 0
9 10 -11 -14 -15 16 -20 -21 -22 0
9 10 -11 -14 -15 16 -20 -21 22 0
9 10 -11 -14 -15 16 -20 21 -22 0
9 10 -11 -14 -15 16 20 -21 -22 0
9 10 -11 -14 15 -16 20 21 22 0
9 10 -11 -14 15 16 -20 21 22 0
9 10 -11 -14 15 16 20 -21 22 0
9 10 -11 -14 15 16 20 21 -22 0
9 10 -11 14 -15 -16 -20 -21 -22 0
9 10 -11 14 -15 -16 -20 -21 22 0
9 10 -11 14 -15 -16 -20 21 -22 0
9 10 -11 14 -15 -16 20 -21 -22 0
9 10 -11 14 -15 16 -20 -21 -22 0
9 10 -11 14 -15 16 20 21 22 0
9 10 -11 14 15 -16 -20 21 22 0
9 10 -11 14 15 -16 20 -21 22 0
9 10 -11 14 15 -16 20 21 -22 0
9 10 -11 14 15 16 -20 -21 22 0
9 10 -11 14 15 16 -20 21 -22 0
9 10 -11 14 15 16 20 -21 -22 0
9 10 11 -14 -15 -16 -20 -21 -22 0
9 10 11 -14 -15 -16 -20 -21 22 0
9 10 11 -14 -15 -16 -20 21 -22 0
9 10 11 -14 -15 -16 20 -21 -22 0
9 10 11 -14 -15 16 -20 -21 -22 0
9 10 11 -14 -15 16 20 21 22 0
9 10 11 -14 15 -16 -20 21 22 0
9 10 11 -14 15 -16 20 -21 22 0
9 10 11 -14 15 -16 20 21 -22 0
9 10 11 -14 15 16 -20 -21 22 0
9 10 11 -14 15 16 -20 21 -22 0
9 10 11 -14 15 16 20 -21 -22 0
9 10 11 14 -15 -16 -20 -21 -22 0
9 10 11 14 -15 -16 20 21 22 0
9 10 11 14 -15 16 -20 21 22 0
9 10 11 14 -15 16 20 -21 22 0
9 10 11 14 -15 16 20 21 -22 0
9 10 11 14 -15 16 20 21 22 0
9 10 11 14 15 -16 -20 -21 22 0
9 10 11 14 15 -16 -20 21 -22 0
9 10 11 14 15 -16 20 -21 -22 0
9 10 11 14 15 16 -20 -21 -22 0
10 -11 -12 -15 -16 -17 -21 -22 -23 0
10 -11 -12 -15 -16 -17 -21 -22 23 0
10 -11 -12 -15 -16 -17 -21 22 -23 0
10 -11 -12 -15 -16 -17 -21 22 23 0
10 -11 -12 -15 -16 -17 21 -22 -23 0
10 -11 -12 -15 -16 -17 21 -22 23 0
10 -11 -12 -15 -16 -17 21 22 -23 0
10 -11 -12 -15 -16 -17 21 22 23 0
10 -11 -12 -15 -16 17 -21 -22 -23 0
10 -11 -12 -15 -16 17 -21 -22 23 0
10 -11 -12 -15 -16 17 -21 22 -23 0
10 -11 -12 -15 -16 17 -21 22 23 0
10 -11 -12 -15 -16 17 21 -22 -23 0
10 -11 -12 -15 -16 17 21 -22 23 0
10 -11 -12 -15 -16 17 21 22 -23 0
10 -11 -12 -15 16 17 21 22 23 0
10 -11 -12 15 -16 -17 -21 -22 -23 0
10 -11 -12 15 -16 -17 -21 -22 23 0
10 -11 -12 15 -16 -17 -21 22 -23 0
10 -11 -12 15 -16 -17 -21 22 23 0
10 -11 -12 15 -16 -17 21 -22 -23 0
10 -11 -12 15 -16 -17 21 -22 23 0
10 -11 -12 15 -16 -17 21 22 -23 0
10 -11 -12 15 -16 17 -21 -22 -23 0
10 -11 -12 15 -16 17 -21 -22 23 0
10 -11 -12 15 -16 17 -21 22 -23 0
10 -11 -12 15 -16 17 21 -22 -23 0
10 -11 -12 15 16 -17 21 22 23 0
10 -11 -12 15 16 17 -21 22 23 0
10 -11 -12 15 16 17 21 -22 23 0
10 -11 -12 15 16 17 21 22 -23 0
10 -11 12 -15 -16 -17 -21 -22 -23 0
10 -11 12 -15 -16 -17 -21 -22 23 0
10 -11 12 -15 -16 -17 -21 22 -23 0
10 -11 12 -15 -16 -17 -21 22 23 0
10 -11 12 -15 -16 -17 21 -22 -23 0
10 -11 12 -15 -16 -17 21 -22 23 0
10 -11 12 -15 -16 -17 21 22 -23 0
10 -11 12 -15 -16 17 -21 -22 -23 0
10 -11 12 -15 -16 17 -21 -22 23 0
10 -11 12 -15 -16 17 -21 22 -23 0
10 -11 12 -15 -16 17 21 -22 -23 0
10 -11 12 -15 16 -17 21 22 23 0
10 -11 12 -15 16 17 -21 22 23 0
10 -11 12 -15 16 17 21 -22 23 0
10 -11 12 -15 16 17 21 22 -23 0
10 -11 12 15 -16 -17 -21 -22 -23 0
10 -11 12 15 -16 -17 -21 -22 23 0
10 -11 12 15 -16 -17 -21 22 -23 0
10 -11 12 15 -16 -17 21 -22 -23 0
10 -11 12 15 -16 17 -21 -22 -23 0
10 -11 12 15 -16 17 21 22 23 0
10 -11 12 15 16 -17 -21 22 23 0
10 -11 12 15 16 -17 21 -22 23 0
10 -11 12 15 16 -17 21 22 -23 0
10 -11 12 15 16 17 -21 -22 23 0
10 -11 12 15 16 17 -21 22 -23 0
10 -11 12 15 16 17 21 -22 -23 0
10 11 -12 -15 -16 -17 -21 -22 -23 0
10 11 -12 -15 -16 -17 -21 -22 23 0
10 11 -12 -15 -16 -17 -21 22 -23 0
10 11 -12 -15 -16 -17 -21 22 23 0
10 11 -12 -15 -16 -17 21 -22 -23 0
10 11 -12 -15 -16 -17 21 -22 23 0
10 11 -12 -15 -16 -17 21 22 -23 0
10 11 -12 -15 -16 17 -21 -22 -23 0
10 11 -12 -15 -16 17 -21 -22 23 0
10 11 -12 -15 -16 17 -21 22 -23 0
10 11 -12 -15 -16 17 21 -22 -23 0
10 11 -12 -15 16 -17 21 22 23 0
10 11 -12 -15 16 17 -21 22 23 0
10 11 -12 -15 16 17 21 -22 23 0
10 11 -12 -15 16 17 21 22 -23 0
10 11 -12 15 -16 -17 -21 -22 -23 0
10 11 -12 15 -16 -17 -21 -22 23 0
10 11 -12 15 -16 -17 -21 22 -23 0
10 11 -12 15 -16 -17 21 -22 -23 0
10 11 -12 15 -16 17 -21 -22 -23 0
10 11 -12 15 -16 17 21 22 23 0
10 11 -12 15 16 -17 -21 22 23 0
10 11 -12 15 16 -17 21 -22 23 0
10 11 -12 15 16 -17 21 22 -23 0
10 11 -12 15 16 17 -21 -22 23 0
10 11 -12 15 16 17 -21 22 -23 0
10 11 -12 15 16 17 21 -22 -23 0
10 11 12 -15 -16 -17 -21 -22 -23 0
10 11 12 -15 -16 -17 -21 -22 23 0
10 11 12 -15 -16 -17 -21 22 -23 0
10 11 12 -15 -16 -17 21 -22 -23 0
10 11 12 -15 -16 17 -21 -22 -23 0
10 11 12 -15 -16 17 21 22 23 0
10 11 12 -15 16 -17 -21 22 23 0
10 11 12 -15 16 -17 21 -22 23 0
10 11 12 -15 16 -17 21 22 -23 0
10 11 12 -15 16 17 -21 -22 23 0
10 11 12 -15 16 17 -21 22 -23 0
10 11 12 -15 16 17 21 -22 -23 0
10 11 12 15 -16 -17 -21 -22 -23 0
10 11 12 15 -16 -17 21 22 23 0
10 11 12 15 -16 17 -21 22 23 0
10 11 12 15 -16 17 21 -22 23 0
10 11 12 15 -16 17 21 22 -23 0
10 11 12 15 -16 17 21 22 23 0
10 11 12 15 16 -17 -21 -22 23 0
10 11 12 15 16 -17 -21 22 -23 0
10 11 12 15 16 -17 21 -22 -23 0
10 11 12 15 16 17 -21 -22 -23 0
11 -12 -16 -17 -22 -23 0
11 -12 -16 -17 -22 23 0
11 -12 -16 -17 22 -23 0
11 -12 -16 -17 22 23 0
11 -12 -16 17 22 23 0
11 -12 16 -17 -22 -23 0
11 -12 16 -17 -22 23 0
11 -12 16 -17 22 -23 0
11 -12 16 17 -22 23 0
11 12 -16 -17 -22 -23 0
11 12 -16 -17 22 -23 0
11 12 -16 17 22 -23 0
11 12 16 -17 -22 -23 0
11 12 16 -17 22 23 0
11 12 16 17 -22 -23 0
13 -18 19 -24 0
13 -18 19 24 0
13 -14 -18 -19 -20 -24 -25 0
13 -14 -18 -19 -20 -24 25 0
13 -14 -18 -19 -20 24 -25 0
13 -14 -18 -19 -20 24 25 0
13 -14 -18 -19 20 -24 -25 0
13 -14 -18 -19 20 -24 25 0
13 -14 -18 -19 20 24 -25 0
13 -14 -18 19 -20 24 25 0
13 -14 -18 19 20 -24 25 0
13 -14 -18 19 20 24 -25 0
13 -14 -15 -19 -20 -21 -24 -25 -26 0
13 -14 -15 -19 -20 -21 -24 -25 26 0
13 -14 -15 -19 -20 -21 -24 25 -26 0
13 -14 -15 -19 -20 -21 -24 25 26 0
13 -14 -15 -19 -20 -21 24 -25 -26 0
13 -14 -15 -19 -20 -21 24 -25 26 0
13 -14 -15 -19 -20 -21 24 25 -26 0
13 -14 -15 -19 -20 -21 24 25 26 0
13 -14 -15 -19 -20 21 -24 -25 -26 0
13 -14 -15 -19 -20 21 -24 -25 26 0
13 -14 -15 -19 -20 21 -24 25 -26 0
13 -14 -15 -19 -20 21 -24 25 26 0
13 -14 -15 -19 -20 21 24 -25 -26 0
13 -14 -15 -19 -20 21 24 -25 26 0
13 -14 -15 -19 -20 21 24 25 -26 0
13 -14 -15 -19 20 21 24 25 26 0
13 -14 -15 19 -20 -21 -24 -25 -26 0
13 -14 -15 19 -20 -21 -24 -25 26 0
13 -14 -15 19 -20 -21 -24 25 -26 0
13 -14 -15 19 -20 -21 -24 25 26 0
13 -14 -15 19 -20 -21 24 -25 -26 0
13 -14 -15 19 -20 -21 24 -25 26 0
13 -14 -15 19 -20 -21 24 25 -26 0
13 -14 -15 19 -20 21 -24 -25 -26 0
13 -14 -15 19 -20 21 -24 -25 26 0
13 -14 -15 19 -20 21 -24 25 -26 0
13 -14 -15 19 -20 21 24 -25 -26 0
13 -14 -15 19 20 -21 24 25 26 0
13 -14 -15 19 20 21 -24 25 26 0
13 -14 -15 19 20 21 24 -25 26 0
13 -14 -15 19 20 21 24 25 -26 0
13 -14 15 -19 -20 -21 -24 -25 -26 0
13 -14 15 -19 -20 -21 -24 -25 26 0
13 -14 15 -19 -20 -21 -24 25 -26 0
13 -14 15 -19 -20 -21 -24 25 26 0
13 -14 15 -19 -20 -21 24 -25 -26 0
13 -14 15 -19 -20 -21 24 -25 26 0
13 -14 15 -19 -20 -21 24 25 -26 0
13 -14 15 -19 -20 21 -24 -25 -26 0
13 -14 15 -19 -20 21 -24 -25 26 0
13 -14 15 -19 -20 21 -24 25 -26 0
13 -14 15 -19 -20 21 24 -25 -26 0
13 -14 15 -19 20 -21 24 25 26 0
13 -14 15 -19 20 21 -24 25 26 0
13 -14 15 -19 20 21 24 -25 26 0
13 -14 15 -19 20 21 24 25 -26 0
13 -14 15 19 -20 -21 -24 -25 -26 0
13 -14 15 19 -20 -21 -24 -25 26 0
13 -14 15 19 -20 -21 -24 25 -26 0
13 -14 15 19 -20 -21 24 -25 -26 0
13 -14 15 19 -20 21 -24 -25 -26 0
13 -14 15 19 -20 21 24 25 26 0
13 -14 15 19 20 -21 -24 25 26 0
13 -14 15 19 20 -21 24 -25 26 0
13 -14 15 19 20 -21 24 25 -26 0
13 -14 15 19 20 21 -24 -25 26 0
13 -14 15 19 20 21 -24 25 -26 0
13 -14 15 19 20 21 24 -25 -26 0
13 -14 18 -19 -20 -24 -25 0
13 -14 18 -19 -20 -24 25 0
13 -14 18 -19 -20 24 -25 0
13 -14 18 -19 20 -24 -25 0
13 -14 18 19 -20 -24 25 0
13 -14 18 19 -20 24 -25 0
13 -14 18 19 20 -24 -25 0
13 14 -18 -19 -20 -24 -25 0
13 14 -18 -19 -20 -24 25 0
13 14 -18 -19 -20 24 -25 0
13 14 -18 -19 20 -24 -25 0
13 14 -18 19 -20 -24 25 0
13 14 -18 19 -20 24 -25 0
13 14 -18 19 20 -24 -25 0
13 14 -15 -19 -20 -21 -24 -25 -26 0
13 14 -15 -19 -20 -21 -24 -25 26 0
13 14 -15 -19 -20 -21 -24 25 -26 0
13 14 -15 -19 -20 -21 -24 25 26 0
13 14 -15 -19 -20 -21 24 -25 -26 0
13 14 -15 -19 -20 -21 24 -25 26 0
13 14 -15 -19 -20 -21 24 25 -26 0
13 14 -15 -19 -20 21 -24 -25 -26 0
13 14 -15 -19 -20 21 -24 -25 26 0
13 14 -15 -19 -20 21 -24 25 -26 0
13 14 -15 -19 -20 21 24 -25 -26 0
13 14 -15 -19 20 -21 24 25 26 0
13 14 -15 -19 20 21 -24 25 26 0
13 14 -15 -19 20 21 24 -25 26 0
13 14 -15 -19 20 21 24 25 -26 0
13 14 -15 19 -20 -21 -24 -25 -26 0
13 14 -15 19 -20 -21 -24 -25 26 0
13 14 -15 19 -20 -21 -24 25 -26 0
13 14 -15 19 -20 -21 24 -25 -26 0
13 14 -15 19 -20 21 -24 -25 -26 0
13 14 -15 19 -20 21 24 25 26 0
13 14 -15 19 20 -21 -24 25 26 0
13 14 -15 19 20 -21 24 -25 26 0
13 14 -15 19 20 -21 24 25 -26 0
13 14 -15 19 20 21 -24 -25 26 0
13 14 -15 19 20 21 -24 25 -26 0
13 14 -15 19 20 21 24 -25 -26 0
13 14 15 -19 -20 -21 -24 -25 -26 0
13 14 15 -19 -20 -21 -24 -25 26 0
13 14 15 -19 -20 -21 -24 25 -26 0
13 14 15 -19 -20 -21 24 -25 -26 0
13 14 15 -19 -20 21 -24 -25 -26 0
13 14 15 -19 -20 21 24 25 26 0
13 14 15 -19 20 -21 -24 25 26 0
13 14 15 -19 20 -21 24 -25 26 0
13 14 15 -19 20 -21 24 25 -26 0
13 14 15 -19 20 21 -24 -25 26 0
13 14 15 -19 20 21 -24 25 -26 0
13 14 15 -19 20 21 24 -25 -26 0
13 14 15 19 -20 -21 -24 -25 -26 0
13 14 15 19 -20 -21 24 25 26 0
13 14 15 19 -20 21 -24 25 26 0
13 14 15 19 -20 21 24 -25 26 0
13 14 15 19 -20 21 24 25 -26 0
13 14 15 19 -20 21 24 25 26 0
13 14 15 19 20 -21 -24 -25 26 0
13 14 15 19 20 -21 -24 25 -26 0
13 14 15 19 20 -21 24 -25 -26 0
13 14 15 19 20 21 -24 -25 -26 0
13 14 18 -19 -20 -24 -25 0
13 14 18 -19 20 24 25 0
13 14 18 19 -20 -24 -25 0
13 18 -19 -24 0
14 -15 -16 -20 -21 -22 -25 -26 -27 0
14 -15 -16 -20 -21 -22 -25 -26 27 0
14 -15 -16 -20 -21 -22 -25 26 -27 0
14 -15 -16 -20 -21 -22 -25 26 27 0
14 -15 -16 -20 -21 -22 25 -26 -27 0
14 -15 -16 -20 -21 -22 25 -26 27 0
14 -15 -16 -20 -21 -22 25 26 -27 0
14 -15 -16 -20 -21 -22 25 26 27 0
14 -15 -16 -20 -21 22 -25 -26 -27 0
14 -15 -16 -20 -21 22 -25 -26 27 0
14 -15 -16 -20 -21 22 -25 26 -27 0
14 -15 -16 -20 -21 22 -25 26 27 0
14 -15 -16 -20 -21 22 25 -26 -27 0
14 -15 -16 -20 -21 22 25 -26 27 0
14 -15 -16 -20 -21 22 25 26 -27 0
14 -15 -16 -20 21 22 25 26 27 0
14 -15 -16 20 -21 -22 -25 -26 -27 0
14 -15 -16 20 -21 -22 -25 -26 27 0
14 -15 -16 20 -21 -22 -25 26 -27 0
14 -15 -16 20 -21 -22 -25 26 27 0
14 -15 -16 20 -21 -22 25 -26 -27 0
14 -15 -16 20 -21 -22 25 -26 27 0
14 -15 -16 20 -21 -22 25 26 -27 0
14 -15 -16 20 -21 22 -25 -26 -27 0
14 -15 -16 20 -21 22 -25 -26 27 0
14 -15 -16 20 -21 22 -25 26 -27 0
14 -15 -16 20 -21 22 25 -26 -27 0
14 -15 -16 20 21 -22 25 26 27 0
14 -15 -16 20 21 22 -25 26 27 0
14 -15 -16 20 21 22 25 -26 27 0
14 -15 -16 20 21 22 25 26 -27 0
14 -15 16 -20 -21 -22 -25 -26 -27 0
14 -15 16 -20 -21 -22 -25 -26 27 0
14 -15 16 -20 -21 -22 -25 26 -27 0
14 -15 16 -20 -21 -22 -25 26 27 0
14 -15 16 -20 -21 -22 25 -26 -27 0
14 -15 16 -20 -21 -22 25 -26 27 0
14 -15 16 -20 -21 -22 25 26 -27 0
14 -15 16 -20 -21 22 -25 -26 -27 0
14 -15 16 -20 -21 22 -25 -26 27 0
14 -15 16 -20 -21 22 -25 26 -27 0
14 -15 16 -20 -21 22 25 -26 -27 0
14 -15 16 -20 21 -22 25 26 27 0
14 -15 16 -20 21 22 -25 26 27 0
14 -15 16 -20 21 22 25 -26 27 0
14 -15 16 -20 21 22 25 26 -27 0
14 -15 16 20 -21 -22 -25 -26 -27 0
14 -15 16 20 -21 -22 -25 -26 27 0
14 -15 16 20 -21 -22 -25 26 -27 0
14 -15 16 20 -21 -22 25 -26 -27 0
14 -15 16 20 -21 22 -25 -26 -27 0
14 -15 16 20 -21 22 25 26 27 0
14 -15 16 20 21 -22 -25 26 27 0
14 -15 16 20 21 -22 25 -26 27 0
14 -15 16 20 21 -22 25 26 -27 0
14 -15 16 20 21 22 -25 -26 27 0
14 -15 16 20 21 22 -25 26 -27 0
14 -15 16 20 21 22 25 -26 -27 0
14 15 -16 -20 -21 -22 -25 -26 -27 0
14 15 -16 -20 -21 -22 -25 -26 27 0
14 15 -16 -20 -21 -22 -25 26 -27 0
14 15 -16 -20 -21 -22 -25 26 27 0
14 15 -16 -20 -21 -22 25 -26 -27 0
14 15 -16 -20 -21 -22 25 -26 27 0
14 15 -16 -20 -21 -22 25 26 -27 0
14 15 -16 -20 -21 22 -25 -26 -27 0
14 15 -16 -20 -21 22 -25 -26 27 0
14 15 -16 -20 -21 22 -25 26 -27 0
14 15 -16 -20 -21 22 25 -26 -27 0
14 15 -16 -20 21 -22 25 26 27 0
14 15 -16 -20 21 22 -25 26 27 0
14 15 -16 -20 21 22 25 -26 27 0
14 15 -16 -20 21 22 25 26 -27 0
14 15 -16 20 -21 -22 -25 -26 -27 0
14 15 -16 20 -21 -22 -25 -26 27 0
14 15 -16 20 -21 -22 -25 26 -27 0
14 15 -16 20 -21 -22 25 -26 -27 0
14 15 -16 20 -21 22 -25 -26 -27 0
14 15 -16 20 -21 22 25 26 27 0
14 15 -16 20 21 -22 -25 26 27 0
14 15 -16 20 21 -22 25 -26 27 0
14 15 -16 20 21 -22 25 26 -27 0
14 15 -16 20 21 22 -25 -26 27 0
14 15 -16 20 21 22 -25 26 -27 0
14 15 -16 20 21 22 25 -26 -27 0
14 15 16 -20 -21 -22 -25 -26 -27 0
14 15 16 -20 -21 -22 -25 -26 27 0
14 15 16 -20 -21 -22 -25 26 -27 0
14 15 16 -20 -21 -22 25 -26 -27 0
14 15 16 -20 -21 22 -25 -26 -27 0
14 15 16 -20 -21 22 25 26 27 0
14 15 16 -20 21 -22 -25 26 27 0
14 15 16 -20 21 -22 25 -26 27 0
14 15 16 -20 21 -22 25 26 -27 0
14 15 16 -20 21 22 -25 -26 27 0
14 15 16 -20 21 22 -25 26 -27 0
14 15 16 -20 21 22 25 -26 -27 0
14 15 16 20 -21 -22 -25 -26 -27 0
14 15 16 20 -21 -22 25 26 27 0
14 15 16 20 -21 22 -25 26 27 0
14 15 16 20 -21 22 25 -26 27 0
14 15 16 20 -21 22 25 26 -27 0
14 15 16 20 -21 22 25 26 27 0
14 15 16 20 21 -22 -25 -26 27 0
14 15 16 20 21 -22 -25 26 -27 0
14 15 16 20 21 -22 25 -26 -27 0
14 15 16 20 21 22 -25 -26 -27 0
15 -16 -17 -21 -22 -23 -26 -27 -28 0
15 -16 -17 -21 -22 -23 -26 -27 28 0
15 -16 -17 -21 -22 -23 -26 27 -28 0
15 -16 -17 -21 -22 -23 -26 27 28 0
15 -16 -17 -21 -22 -23 26 -27 -28 0
15 -16 -17 -21 -22 -23 26 -27 28 0
15 -16 -17 -21 -22 -23 26 27 -28 0
15 -16 -17 -21 -22 -23 26 27 28 0
15 -16 -17 -21 -22 23 -26 -27 -28 0
15 -16 -17 -21 -22 23 -26 -27 28 0
15 -16 -17 -21 -22 23 -26 27 -28 0
15 -16 -17 -21 -22 23 -26 27 28 0
15 -16 -17 -21 -22 23 26 -27 -28 0
15 -16 -17 -21 -22 23 26 -27 28 0
15 -16 -17 -21 -22 23 26 27 -28 0
15 -16 -17 -21 22 23 26 27 28 0
15 -16 -17 21 -22 -23 -26 -27 -28 0
15 -16 -17 21 -22 -23 -26 -27 28 0
15 -16 -17 21 -22 -23 -26 27 -28 0
15 -16 -17 21 -22 -23 -26 27 28 0
15 -16 -17 21 -22 -23 26 -27 -28 0
15 -16 -17 21 -22 -23 26 -27 28 0
15 -16 -17 21 -22 -23 26 27 -28 0
15 -16 -17 21 -22 23 -26 -27 -28 0
15 -16 -17 21 -22 23 -26 -27 28 0
15 -16 -17 21 -22 23 -26 27 -28 0
15 -16 -17 21 -22 23 26 -27 -28 0
15 -16 -17 21 22 -23 26 27 28 0
15 -16 -17 21 22 23 -26 27 28 0
15 -16 -17 21 22 23 26 -27 28 0
15 -16 -17 21 22 23 26 27 -28 0
15 -16 17 -21 -22 -23 -26 -27 -28 0
15 -16 17 -21 -22 -23 -26 -27 28 0
15 -16 17 -21 -22 -23 -26 27 -28 0
15 -16 17 -21 -22 -23 -26 27 28 0
15 -16 17 -21 -22 -23 26 -27 -28 0
15 -16 17 -21 -22 -23 26 -27 28 0
15 -16 17 -21 -22 -23 26 27 -28 0
15 -16 17 -21 -22 23 -26 -27 -28 0
15 -16 17 -21 -22 23 -26 -27 28 0
15 -16 17 -21 -22 23 -26 27 -28 0
15 -16 17 -21 -22 23 26 -27 -28 0
15 -16 17 -21 22 -23 26 27 28 0
15 -16 17 -21 22 23 -26 27 28 0
15 -16 17 -21 22 23 26 -27 28 0
15 -16 17 -21 22 23 26 27 -28 0
15 -16 17 21 -22 -23 -26 -27 -28 0
15 -16 17 21 -22 -23 -26 -27 28 0
15 -16 17 21 -22 -23 -26 27 -28 0
15 -16 17 21 -22 -23 26 -27 -28 0
15 -16 17 21 -22 23 -26 -27 -28 0
15 -16 17 21 -22 23 26 27 28 0
15 -16 17 21 22 -23 -26 27 28 0
15 -16 17 21 22 -23 26 -27 28 0
15 -16 17 21 22 -23 26 27 -28 0
15 -16 17 21 22 23 -26 -27 28 0
15 -16 17 21 22 23 -26 27 -28 0
15 -16 17 21 22 23 26 -27 -28 0
15 16 -17 -21 -22 -23 -26 -27 -28 0
15 16 -17 -21 -22 -23 -26 -27 28 0
15 16 -17 -21 -22 -23 -26 27 -28 0
15 16 -17 -21 -22 -23 -26 27 28 0
15 16 -17 -21 -22 -23 26 -27 -28 0
15 16 -17 -21 -22 -23 26 -27 28 0
15 16 -17 -21 -22 -23 26 27 -28 0
15 16 -17 -21 -22 23 -26 -27 -28 0
15 16 -17 -21 -22 23 -26 -27 28 0
15 16 -17 -21 -22 23 -26 27 -28 0
15 16 -17 -21 -22 23 26 -27 -28 0
15 16 -17 -21 22 -23 26 27 28 0
15 16 -17 -21 22 23 -26 27 28 0
15 16 -17 -21 22 23 26 -27 28 0
15 16 -17 -21 22 23 26 27 -28 0
15 16 -17 21 -22 -23 -26 -27 -28 0
15 16 -17 21 -22 -23 -26 -27 28 0
15 16 -17 21 -22 -23 -26 27 -28 0
15 16 -17 21 -22 -23 26 -27 -28 0
15 16 -17 21 -22 23 -26 -27 -28 0
15 16 -17 21 -22 23 26 27 28 0
15 16 -17 21 22 -23 -26 27 28 0
15 16 -17 21 22 -23 26 -27 28 0
15 16 -17 21 22 -23 26 27 -28 0
15 16 -17 21 22 23 -26 -27 28 0
15 16 -17 21 22 23 -26 27 -28 0
15 16 -17 21 22 23 26 -27 -28 0
15 16 17 -21 -22 -23 -26 -27 -28 0
15 16 17 -21 -22 -23 -26 -27 28 0
15 16 17 -21 -22 -23 -26 27 -28 0
15 16 17 -21 -22 -23 26 -27 -28 0
15 16 17 -21 -22 23 -26 -27 -28 0
15 16 17 -21 -22 23 26 27 28 0
15 16 17 -21 22 -23 -26 27 28 0
15 16 17 -21 22 -23 26 -27 28 0
15 16 17 -21 22 -23 26 27 -28 0
15 16 17 -21 22 23 -26 -27 28 0
15 16 17 -21 22 23 -26 27 -28 0
15 16 17 -21 22 23 26 -27 -28 0
15 16 17 21 -22 -23 -26 -27 -28 0
15 16 17 21 -22 -23 26 27 28 0
15 16 17 21 -22 23 -26 27 28 0
15 16 17 21 -22 23 26 -27 28 0
15 16 17 21 -22 23 26 27 -28 0
15 16 17 21 -22 23 26 27 28 0
15 16 17 21 22 -23 -26 -27 28 0
15 16 17 21 22 -23 -26 27 -28 0
15 16 17 21 22 -23 26 -27 -28 0
15 16 17 21 22 23 -26 -27 -28 0
16 -17 -22 -23 -27 -28 0
16 -17 -22 -23 -27 28 0
16 -17 -22 -23 27 -28 0
16 -17 -22 -23 27 28 0
16 -17 -22 23 27 28 0
16 -17 22 -23 -27 -28 0
16 -17 22 -23 -27 28 0
16 -17 22 -23 27 -28 0
16 -17 22 23 -27 28 0
16 17 -22 -23 -27 -28 0
16 17 -22 -23 27 -28 0
16 17 -22 23 27 -28 0
16 17 22 -23 -27 -28 0
16 17 22 -23 27 28 0
16 17 22 23 -27 -28 0
18 -19 -20 -24 -25 -29 0
18 -19 -20 -24 -25 29 0
18 -19 -20 -24 25 -29 0
18 -19 -20 -24 25 29 0
18 -19 20 -24 -25 -29 0
18 -19 20 -24 -25 29 0
18 -19 20 24 25 -29 0
18 19 -20 -24 -25 -29 0
18 19 -20 -24 -25 29 0
18 19 -20 24 25 -29 0
18 19 20 -24 25 -29 0
18 19 20 -24 25 29 0
18 19 20 24 -25 -29 0
19 -20 -21 -24 -25 -26 -29 -30 0
19 -20 -21 -24 -25 -26 -29 30 0
19 -20 -21 -24 -25 -26 29 -30 0
19 -20 -21 -24 -25 -26 29 30 0
19 -20 -21 -24 -25 26 -29 -30 0
19 -20 -21 -24 -25 26 -29 30 0
19 -20 -21 -24 -25 26 29 -30 0
19 -20 -21 -24 -25 26 29 30 0
19 -20 -21 -24 25 26 29 30 0
19 -20 -21 24 -25 -26 -29 -30 0
19 -20 -21 24 -25 -26 -29 30 0
19 -20 -21 24 -25 -26 29 -30 0
19 -20 -21 24 -25 -26 29 30 0
19 -20 -21 24 -25 26 -29 -30 0
19 -20 -21 24 -25 26 -29 30 0
19 -20 -21 24 -25 26 29 -30 0
19 -20 -21 24 25 -26 29 30 0
19 -20 -21 24 25 26 -29 30 0
19 -20 -21 24 25 26 29 -30 0
19 -20 21 -24 -25 -26 -29 -30 0
19 -20 21 -24 -25 -26 -29 30 0
19 -20 21 -24 -25 -26 29 -30 0
19 -20 21 -24 -25 -26 29 30 0
19 -20 21 -24 -25 26 -29 -30 0
19 -20 21 -24 -25 26 -29 30 0
19 -20 21 -24 -25 26 29 -30 0
19 -20 21 -24 25 -26 29 30 0
19 -20 21 -24 25 26 -29 30 0
19 -20 21 -24 25 26 29 -30 0
19 -20 21 24 -25 -26 -29 -30 0
19 -20 21 24 -25 -26 -29 30 0
19 -20 21 24 -25 -26 29 -30 0
19 -20 21 24 -25 26 -29 -30 0
19 -20 21 24 25 -26 -29 30 0
19 -20 21 24 25 -26 29 -30 0
19 -20 21 24 25 26 -29 -30 0
19 20 -21 -24 -25 -26 -29 -30 0
19 20 -21 -24 -25 -26 -29 30 0
19 20 -21 -24 -25 -26 29 -30 0
19 20 -21 -24 -25 -26 29 30 0
19 20 -21 -24 -25 26 -29 -30 0
19 20 -21 -24 -25 26 -29 30 0
19 20 -21 -24 -25 26 29 -30 0
19 20 -21 -24 25 -26 29 30 0
19 20 -21 -24 25 26 -29 30 0
19 20 -21 -24 25 26 29 -30 0
19 20 -21 24 -25 -26 -29 -30 0
19 20 -21 24 -25 -26 -29 30 0
19 20 -21 24 -25 -26 29 -30 0
19 20 -21 24 -25 26 -29 -30 0
19 20 -21 24 25 -26 -29 30 0
19 20 -21 24 25 -26 29 -30 0
19 20 -21 24 25 26 -29 -30 0
19 20 21 -24 -25 -26 -29 -30 0
19 20 21 -24 -25 -26 -29 30 0
19 20 21 -24 -25 -26 29 -30 0
19 20 21 -24 -25 26 -29 -30 0
19 20 21 -24 25 -26 -29 30 0
19 20 21 -24 25 -26 29 -30 0
19 20 21 -24 25 26 -29 -30 0
19 20 21 24 -25 -26 -29 -30 0
19 20 21 24 -25 26 29 30 0
19 20 21 24 25 -26 -29 -30 0
20 -21 -22 -25 -26 -27 -29 -30 -31 0
20 -21 -22 -25 -26 -27 -29 -30 31 0
20 -21 -22 -25 -26 -27 -29 30 -31 0
20 -21 -22 -25 -26 -27 -29 30 31 0
20 -21 -22 -25 -26 -27 29 -30 -31 0
20 -21 -22 -25 -26 -27 29 -30 31 0
20 -21 -22 -25 -26 -27 29 30 -31 0
20 -21 -22 -25 -26 -27 29 30 31 0
20 -21 -22 -25 -26 27 -29 -30 -31 0
20 -21 -22 -25 -26 27 -29 -30 31 0
20 -21 -22 -25 -26 27 -29 30 -31 0
20 -21 -22 -25 -26 27 -29 30 31 0
20 -21 -22 -25 -26 27 29 -30 -31 0
20 -21 -22 -25 -26 27 29 -30 31 0
20 -21 -22 -25 -26 27 29 30 -31 0
20 -21 -22 -25 26 27 29 30 31 0
20 -21 -22 25 -26 -27 -29 -30 -31 0
20 -21 -22 25 -26 -27 -29 -30 31 0
20 -21 -22 25 -26 -27 -29 30 -31 0
20 -21 -22 25 -26 -27 -29 30 31 0
20 -21 -22 25 -26 -27 29 -30 -31 0
20 -21 -22 25 -26 -27 29 -30 31 0
20 -21 -22 25 -26 -27 29 30 -31 0
20 -21 -22 25 -26 27 -29 -30 -31 0
20 -21 -22 25 -26 27 -29 -30 31 0
20 -21 -22 25 -26 27 -29 30 -31 0
20 -21 -22 25 -26 27 29 -30 -31 0
20 -21 -22 25 26 -27 29 30 31 0
20 -21 -22 25 26 27 -29 30 31 0
20 -21 -22 25 26 27 29 -30 31 0
20 -21 -22 25 26 27 29 30 -31 0
20 -21 22 -25 -26 -27 -29 -30 -31 0
20 -21 22 -25 -26 -27 -29 -30 31 0
20 -21 22 -25 -26 -27 -29 30 -31 0
20 -21 22 -25 -26 -27 -29 30 31 0
20 -21 22 -25 -26 -27 29 -30 -31 0
20 -21 22 -25 -26 -27 29 -30 31 0
20 -21 22 -25 -26 -27 29 30 -31 0
20 -21 22 -25 -26 27 -29 -30 -31 0
20 -21 22 -25 -26 27 -29 -30 31 0
20 -21 22 -25 -26 27 -29 30 -31 0
20 -21 22 -25 -26 27 29 -30 -31 0
20 -21 22 -25 26 -27 29 30 31 0
20 -21 22 -25 26 27 -29 30 31 0
20 -21 22 -25 26 27 29 -30 31 0
20 -21 22 -25 26 27 29 30 -31 0
20 -21 22 25 -26 -27 -29 -30 -31 0
20 -21 22 25 -26 -27 -29 -30 31 0
20 -21 22 25 -26 -27 -29 30 -31 0
20 -21 22 25 -26 -27 29 -30 -31 0
20 -21 22 25 -26 27 -29 -30 -31 0
20 -21 22 25 -26 27 29 30 31 0
20 -21 22 25 26 -27 -29 30 31 0
20 -21 22 25 26 -27 29 -30 31 0
20 -21 22 25 26 -27 29 30 -31 0
20 -21 22 25 26 27 -29 -30 31 0
20 -21 22 25 26 27 -29 30 -31 0
20 -21 22 25 26 27 29 -30 -31 0
20 21 -22 -25 -26 -27 -29 -30 -31 0
20 21 -22 -25 -26 -27 -29 -30 31 0
20 21 -22 -25 -26 -27 -29 30 -31 0
20 21 -22 -25 -26 -27 -29 30 31 0
20 21 -22 -25 -26 -27 29 -30 -31 0
20 21 -22 -25 -26 -27 29 -30 31 0
20 21 -22 -25 -26 -27 29 30 -31 0
20 21 -22 -25 -26 27 -29 -30 -31 0
20 21 -22 -25 -26 27 -29 -30 31 0
20 21 -22 -25 -26 27 -29 30 -31 0
20 21 -22 -25 -26 27 29 -30 -31 0
20 21 -22 -25 26 -27 29 30 31 0
20 21 -22 -25 26 27 -29 30 31 0
20 21 -22 -25 26 27 29 -30 31 0
20 21 -22 -25 26 27 29 30 -31 0
20 21 -22 25 -26 -27 -29 -30 -31 0
20 21 -22 25 -26 -27 -29 -30 31 0
20 21 -22 25 -26 -27 -29 30 -31 0
20 21 -22 25 -26 -27 29 -30 -31 0
20 21 -22 25 -26 27 -29 -30 -31 0
20 21 -22 25 -26 27 29 30 31 0
20 21 -22 25 26 -27 -29 30 31 0
20 21 -22 25 26 -27 29 -30 31 0
20 21 -22 25 26 -27 29 30 -31 0
20 21 -22 25 26 27 -29 -30 31 0
20 21 -22 25 26 27 -29 30 -31 0
20 21 -22 25 26 27 29 -30 -31 0
20 21 22 -25 -26 -27 -29 -30 -31 0
20 21 22 -25 -26 -27 -29 -30 31 0
20 21 22 -25 -26 -27 -29 30 -31 0
20 21 22 -25 -26 -27 29 -30 -31 0
20 21 22 -25 -26 27 -29 -30 -31 0
20 21 22 -25 -26 27 29 30 31 0
20 21 22 -25 26 -27 -29 30 31 0
20 21 22 -25 26 -27 29 -30 31 0
20 21 22 -25 26 -27 29 30 -31 0
20 21 22 -25 26 27 -29 -30 31 0
20 21 22 -25 26 27 -29 30 -31 0
20 21 22 -25 26 27 29 -30 -31 0
20 21 22 25 -26 -27 -29 -30 -31 0
20 21 22 25 -26 -27 29 30 31 0
20 21 22 25 -26 27 -29 30 31 0
20 21 22 25 -26 27 29 -30 31 0
20 21 22 25 -26 27 29 30 -31 0
20 21 22 25 -26 27 29 30 31 0
20 21 22 25 26 -27 -29 -30 31 0
20 21 22 25 26 -27 -29 30 -31 0
20 21 22 25 26 -27 29 -30 -31 0
20 21 22 25 26 27 -29 -30 -31 0
21 -22 -23 -26 -27 -28 -30 -31 -32 0
21 -22 -23 -26 -27 -28 -30 -31 32 0
21 -22 -23 -26 -27 -28 -30 31 -32 0
21 -22 -23 -26 -27 -28 -30 31 32 0
21 -22 -23 -26 -27 -28 30 -31 -32 0
21 -22 -23 -26 -27 -28 30 -31 32 0
21 -22 -23 -26 -27 -28 30 31 -32 0
21 -22 -23 -26 -27 -28 30 31 32 0
21 -22 -23 -26 -27 28 -30 -31 -32 0
21 -22 -23 -26 -27 28 -30 -31 32 0
21 -22 -23 -26 -27 28 -30 31 -32 0
21 -22 -23 -26 -27 28 -30 31 32 0
21 -22 -23 -26 -27 28 30 -31 -32 0
21 -22 -23 -26 -27 28 30 -31 32 0
21 -22 -23 -26 -27 28 30 31 -32 0
21 -22 -23 -26 27 28 30 31 32 0
21 -22 -23 26 -27 -28 -30 -31 -32 0
21 -22 -23 26 -27 -28 -30 -31 32 0
21 -22 -23 26 -27 -28 -30 31 -32 0
21 -22 -23 26 -27 -28 -30 31 32 0
21 -22 -23 26 -27 -28 30 -31 -32 0
21 -22 -23 26 -27 -28 30 -31 32 0
21 -22 -23 26 -27 -28 30 31 -32 0
21 -22 -23 26 -27 28 -30 -31 -32 0
21 -22 -23 26 -27 28 -30 -31 32 0
21 -22 -23 26 -27 28 -30 31 -32 0
21 -22 -23 26 -27 28 30 -31 -32 0
21 -22 -23 26 27 -28 30 31 32 0
21 -22 -23 26 27 28 -30 31 32 0
21 -22 -23 26 27 28 30 -31 32 0
21 -22 -23 26 27 28 30 31 -32 0
21 -22 23 -26 -27 -28 -30 -31 -32 0
21 -22 23 -26 -27 -28 -30 -31 32 0
21 -22 23 -26 -27 -28 -30 31 -32 0
21 -22 23 -26 -27 -28 -30 31 32 0
21 -22 23 -26 -27 -28 30 -31 -32 0
21 -22 23 -26 -27 -28 30 -31 32 0
21 -22 23 -26 -27 -28 30 31 -32 0
21 -22 23 -26 -27 28 -30 -31 -32 0
21 -22 23 -26 -27 28 -30 -31 32 0
21 -22 23 -26 -27 28 -30 31 -32 0
21 -22 23 -26 -27 28 30 -31 -32 0
21 -22 23 -26 27 -28 30 31 32 0
21 -22 23 -26 27 28 -30 31 32 0
21 -22 23 -26 27 28 30 -31 32 0
21 -22 23 -26 27 28 30 31 -32 0
21 -22 23 26 -27 -28 -30 -31 -32 0
21 -22 23 26 -27 -28 -30 -31 32 0
21 -22 23 26 -27 -28 -30 31 -32 0
21 -22 23 26 -27 -28 30 -31 -32 0
21 -22 23 26 -27 28 -30 -31 -32 0
21 -22 23 26 -27 28 30 31 32 0
21 -22 23 26 27 -28 -30 31 32 0
21 -22 23 26 27 -28 30 -31 32 0
21 -22 23 26 27 -28 30 31 -32 0
21 -22 23 26 27 28 -30 -31 32 0
21 -22 23 26 27 28 -30 31 -32 0
21 -22 23 26 27 28 30 -31 -32 0
21 22 -23 -26 -27 -28 -30 -31 -32 0
21 22 -23 -26 -27 -28 -30 -31 32 0
21 22 -23 -26 -27 -28 -30 31 -32 0
21 22 -23 -26 -27 -28 -30 31 32 0
21 22 -23 -26 -27 -28 30 -31 -32 0
21 22 -23 -26 -27 -28 30 -31 32 0
21 22 -23 -26 -27 -28 30 31 -32 0
21 22 -23 -26 -27 28 -30 -31 -32 0
21 22 -23 -26 -27 28 -30 -31 32 0
21 22 -23 -26 -27 28 -30 31 -32 0
21 22 -23 -26 -27 28 30 -31 -32 0
21 22 -23 -26 27 -28 30 31 32 0
21 22 -23 -26 27 28 -30 31 32 0
21 22 -23 -26 27 28 30 -31 32 0
21 22 -23 -26 27 28 30 31 -32 0
21 22 -23 26 -27 -28 -30 -31 -32 0
21 22 -23 26 -27 -28 -30 -31 32 0
21 22 -23 26 -27 -28 -30 31 -32 0
21 22 -23 26 -27 -28 30 -31 -32 0
21 22 -23 26 -27 28 -30 -31 -32 0
21 22 -23 26 -27 28 30 31 32 0
21 22 -23 26 27 -28 -30 31 32 0
21 22 -23 26 27 -28 30 -31 32 0
21 22 -23 26 27 -28 30 31 -32 0
21 22 -23 26 27 28 -30 -31 32 0
21 22 -23 26 27 28 -30 31 -32 0
21 22 -23 26 27 28 30 -31 -32 0
21 22 23 -26 -27 -28 -30 -31 -32 0
21 22 23 -26 -27 -28 -30 -31 32 0
21 22 23 -26 -27 -28 -30 31 -32 0
21 22 23 -26 -27 -28 30 -31 -32 0
21 22 23 -26 -27 28 -30 -31 -32 0
21 22 23 -26 -27 28 30 31 32 0
21 22 23 -26 27 -28 -30 31 32 0
21 22 23 -26 27 -28 30 -31 32 0
21 22 23 -26 27 -28 30 31 -32 0
21 22 23 -26 27 28 -30 -31 32 0
21 22 23 -26 27 28 -30 31 -32 0
21 22 23 -26 27 28 30 -31 -32 0
21 22 23 26 -27 -28 -30 -31 -32 0
21 22 23 26 -27 -28 30 31 32 0
21 22 23 26 -27 28 -30 31 32 0
21 22 23 26 -27 28 30 -31 32 0
21 22 23 26 -27 28 30 31 -32 0
21 22 23 26 -27 28 30 31 32 0
21 22 23 26 27 -28 -30 -31 32 0
21 22 23 26 27 -28 -30 31 -32 0
21 22 23 26 27 -28 30 -31 -32 0
21 22 23 26 27 28 -30 -31 -32 0
22 -23 -27 -28 -31 -32 0
22 -23 -27 -28 -31 32 0
22 -23 -27 -28 31 -32 0
22 -23 -27 -28 31 32 0
22 -23 -27 28 31 32 0
22 -23 27 -28 -31 -32 0
22 -23 27 -28 -31 32 0
22 -23 27 -28 31 -32 0
22 -23 27 28 -31 32 0
22 23 -27 -28 -31 -32 0
22 23 -27 -28 31 -32 0
22 23 -27 28 31 -32 0
22 23 27 -28 -31 -32 0
22 23 27 -28 31 32 0
22 23 27 28 -31 -32 0
24 -25 -26 -29 -30 -33 0
24 -25 -26 -29 -30 33 0
24 -25 -26 -29 30 -33 0
24 -25 -26 -29 30 33 0
24 -25 26 -29 -30 -33 0
24 -25 26 -29 -30 33 0
24 -25 26 29 30 -33 0
24 25 -26 -29 -30 -33 0
24 25 -26 -29 -30 33 0
24 25 -26 29 30 -33 0
24 25 26 -29 30 -33 0
24 25 26 -29 30 33 0
24 25 26 29 -30 -33 0
25 -26 -27 -29 -30 -31 -33 -34 0
25 -26 -27 -29 -30 -31 -33 34 0
25 -26 -27 -29 -30 -31 33 -34 0
25 -26 -27 -29 -30 -31 33 34 0
25 -26 -27 -29 -30 31 -33 -34 0
25 -26 -27 -29 -30 31 -33 34 0
25 -26 -27 -29 -30 31 33 -34 0
25 -26 -27 -29 -30 31 33 34 0
25 -26 -27 -29 30 31 33 34 0
25 -26 -27 29 -30 -31 -33 -34 0
25 -26 -27 29 -30 -31 -33 34 0
25 -26 -27 29 -30 -31 33 -34 0
25 -26 -27 29 -30 -31 33 34 0
25 -26 -27 29 -30 31 -33 -34 0
25 -26 -27 29 -30 31 -33 34 0
25 -26 -27 29 -30 31 33 -34 0
25 -26 -27 29 30 -31 33 34 0
25 -26 -27 29 30 31 -33 34 0
25 -26 -27 29 30 31 33 -34 0
25 -26 27 -29 -30 -31 -33 -34 0
25 -26 27 -29 -30 -31 -33 34 0
25 -26 27 -29 -30 -31 33 -34 0
25 -26 27 -29 -30 -31 33 34 0
25 -26 27 -29 -30 31 -33 -34 0
25 -26 27 -29 -30 31 -33 34 0
25 -26 27 -29 -30 31 33 -34 0
25 -26 27 -29 30 -31 33 34 0
25 -26 27 -29 30 31 -33 34 0
25 -26 27 -29 30 31 33 -34 0
25 -26 27 29 -30 -31 -33 -34 0
25 -26 27 29 -30 -31 -33 34 0
25 -26 27 29 -30 -31 33 -34 0
25 -26 27 29 -30 31 -33 -34 0
25 -26 27 29 30 -31 -33 34 0
25 -26 27 29 30 -31 33 -34 0
25 -26 27 29 30 31 -33 -34 0
25 26 -27 -29 -30 -31 -33 -34 0
25 26 -27 -29 -30 -31 -33 34 0
25 26 -27 -29 -30 -31 33 -34 0
25 26 -27 -29 -30 -31 33 34 0
25 26 -27 -29 -30 31 -33 -34 0
25 26 -27 -29 -30 31 -33 34 0
25 26 -27 -29 -30 31 33 -34 0
25 26 -27 -29 30 -31 33 34 0
25 26 -27 -29 30 31 -33 34 0
25 26 -27 -29 30 31 33 -34 0
25 26 -27 29 -30 -31 -33 -34 0
25 26 -27 29 -30 -31 -33 34 0
25 26 -27 29 -30 -31 33 -34 0
25 26 -27 29 -30 31 -33 -34 0
25 26 -27 29 30 -31 -33 34 0
25 26 -27 29 30 -31 33 -34 0
25 26 -27 29 30 31 -33 -34 0
25 26 27 -29 -30 -31 -33 -34 0
25 26 27 -29 -30 -31 -33 34 0
25 26 27 -29 -30 -31 33 -34 0
25 26 27 -29 -30 31 -33 -34 0
25 26 27 -29 30 -31 -33 34 0
25 26 27 -29 30 -31 33 -34 0
25 26 27 -29 30 31 -33 -34 0
25 26 27 29 -30 -31 -33 -34 0
25 26 27 29 -30 31 33 34 0
25 26 27 29 30 -31 -33 -34 0
26 -27 -28 -30 -31 -32 -33 -34 -35 0
26 -27 -28 -30 -31 -32 -33 -34 35 0
26 -27 -28 -30 -31 -32 -33 34 -35 0
26 -27 -28 -30 -31 -32 -33 34 35 0
26 -27 -28 -30 -31 -32 33 -34 -35 0
26 -27 -28 -30 -31 -32 33 -34 35 0
26 -27 -28 -30 -31 -32 33 34 -35 0
26 -27 -28 -30 -31 -32 33 34 35 0
26 -27 -28 -30 -31 32 -33 -34 -35 0
26 -27 -28 -30 -31 32 -33 -34 35 0
26 -27 -28 -30 -31 32 -33 34 -35 0
26 -27 -28 -30 -31 32 -33 34 35 0
26 -27 -28 -30 -31 32 33 -34 -35 0
26 -27 -28 -30 -31 32 33 -34 35 0
26 -27 -28 -30 -31 32 33 34 -35 0
26 -27 -28 -30 31 32 33 34 35 0
26 -27 -28 30 -31 -32 -33 -34 -35 0
26 -27 -28 30 -31 -32 -33 -34 35 0
26 -27 -28 30 -31 -32 -33 34 -35 0
26 -27 -28 30 -31 -32 -33 34 35 0
26 -27 -28 30 -31 -32 33 -34 -35 0
26 -27 -28 30 -31 -32 33 -34 35 0
26 -27 -28 30 -31 -32 33 34 -35 0
26 -27 -28 30 -31 32 -33 -34 -35 0
26 -27 -28 30 -31 32 -33 -34 35 0
26 -27 -28 30 -31 32 -33 34 -35 0
26 -27 -28 30 -31 32 33 -34 -35 0
26 -27 -28 30 31 -32 33 34 35 0
26 -27 -28 30 31 32 -33 34 35 0
26 -27 -28 30 31 32 33 -34 35 0
26 -27 -28 30 31 32 33 34 -35 0
26 -27 28 -30 -31 -32 -33 -34 -35 0
26 -27 28 -30 -31 -32 -33 -34 35 0
26 -27 28 -30 -31 -32 -33 34 -35 0
26 -27 28 -30 -31 -32 -33 34 35 0
26 -27 28 -30 -31 -32 33 -34 -35 0
26 -27 28 -30 -31 -32 33 -34 35 0
26 -27 28 -30 -31 -32 33 34 -35 0
26 -27 28 -30 -31 32 -33 -34 -35 0
26 -27 28 -30 -31 32 -33 -34 35 0
26 -27 28 -30 -31 32 -33 34 -35 0
26 -27 28 -30 -31 32 33 -34 -35 0
26 -27 28 -30 31 -32 33 34 35 0
26 -27 28 -30 31 32 -33 34 35 0
26 -27 28 -30 31 32 33 -34 35 0
26 -27 28 -30 31 32 33 34 -35 0
26 -27 28 30 -31 -32 -33 -34 -35 0
26 -27 28 30 -31 -32 -33 -34 35 0
26 -27 28 30 -31 -32 -33 34 -35 0
26 -27 28 30 -31 -32 33 -34 -35 0
26 -27 28 30 -31 32 -33 -34 -35 0
26 -27 28 30 -31 32 33 34 35 0
26 -27 28 30 31 -32 -33 34 35 0
26 -27 28 30 31 -32 33 -34 35 0
26 -27 28 30 31 -32 33 34 -35 0
26 -27 28 30 31 32 -33 -34 35 0
26 -27 28 30 31 32 -33 34 -35 0
26 -27 28 30 31 32 33 -34 -35 0
26 27 -28 -30 -31 -32 -33 -34 -35 0
26 27 -28 -30 -31 -32 -33 -34 35 0
26 27 -28 -30 -31 -32 -33 34 -35 0
26 27 -28 -30 -31 -32 -33 34 35 0
26 27 -28 -30 -31 -32 33 -34 -35 0
26 27 -28 -30 -31 -32 33 -34 35 0
26 27 -28 -30 -31 -32 33 34 -35 0
26 27 -28 -30 -31 32 -33 -34 -35 0
26 27 -28 -30 -31 32 -33 -34 35 0
26 27 -28 -30 -31 32 -33 34 -35 0
26 27 -28 -30 -31 32 33 -34 -35 0
26 27 -28 -30 31 -32 33 34 35 0
26 27 -28 -30 31 32 -33 34 35 0
26 27 -28 -30 31 32 33 -34 35 0
26 27 -28 -30 31 32 33 34 -35 0
26 27 -28 30 -31 -32 -33 -34 -35 0
26 27 -28 30 -31 -32 -33 -34 35 0
26 27 -28 30 -31 -32 -33 34 -35 0
26 27 -28 30 -31 -32 33 -34 -35 0
26 27 -28 30 -31 32 -33 -34 -35 0
26 27 -28 30 -31 32 33 34 35 0
26 27 -28 30 31 -32 -33 34 35 0
26 27 -28 30 31 -32 33 -34 35 0
26 27 -28 30 31 -32 33 34 -35 0
26 27 -28 30 31 32 -33 -34 35 0
26 27 -28 30 31 32 -33 34 -35 0
26 27 -28 30 31 32 33 -34 -35 0
26 27 28 -30 -31 -32 -33 -34 -35 0
26 27 28 -30 -31 -32 -33 -34 35 0
26 27 28 -30 -31 -32 -33 34 -35 0
26 27 28 -30 -31 -32 33 -34 -35 0
26 27 28 -30 -31 32 -33 -34 -35 0
26 27 28 -30 -31 32 33 34 35 0
26 27 28 -30 31 -32 -33 34 35 0
26 27 28 -30 31 -32 33 -34 35 0
26 27 28 -30 31 -32 33 34 -35 0
26 27 28 -30 31 32 -33 -34 35 0
26 27 28 -30 31 32 -33 34 -35 0
26 27 28 -30 31 32 33 -34 -35 0
26 27 28 30 -31 -32 -33 -34 -35 0
26 27 28 30 -31 -32 33 34 35 0
26 27 28 30 -31 32 -33 34 35 0
26 27 28 30 -31 32 33 -34 35 0
26 27 28 30 -31 32 33 34 -35 0
26 27 28 30 -31 32 33 34 35 0
26 27 28 30 31 -32 -33 -34 35 0
26 27 28 30 31 -32 -33 34 -35 0
26 27 28 30 31 -32 33 -34 -35 0
26 27 28 30 31 32 -33 -34 -35 0
27 -28 -31 -32 -34 -35 0
27 -28 -31 -32 -34 35 0
27 -28 -31 -32 34 -35 0
27 -28 -31 -32 34 35 0
27 -28 -31 32 34 35 0
27 -28 31 -32 -34 -35 0
27 -28 31 -32 -34 35 0
27 -28 31 -32 34 -35 0
27 -28 31 32 -34 35 0
27 28 -31 -32 -34 -35 0
27 28 -31 -32 34 -35 0
27 28 -31 32 34 -35 0
27 28 31 -32 -34 -35 0
27 28 31 -32 34 35 0
27 28 31 32 -34 -35 0
29 -30 -31 -33 -34 -36 0
29 -30 -31 -33 -34 36 0
29 -30 -31 -33 34 -36 0
29 -30 -31 -33 34 36 0
29 -30 31 -33 -34 -36 0
29 -30 31 -33 -34 36 0
29 -30 31 33 34 -36 0
29 30 -31 -33 -34 -36 0
29 30 -31 -33 -34 36 0
29 30 -31 33 34 -36 0
29 30 31 -33 34 -36 0
29 30 31 -33 34 36 0
29 30 31 33 -34 -36 0
30 -31 -32 -33 -34 -35 -36 -37 0
30 -31 -32 -33 -34 -35 -36 37 0
30 -31 -32 -33 -34 -35 36 -37 0
30 -31 -32 -33 -34 -35 36 37 0
30 -31 -32 -33 -34 35 -36 -37 0
30 -31 -32 -33 -34 35 -36 37 0
30 -31 -32 -33 -34 35 36 -37 0
30 -31 -32 -33 -34 35 36 37 0
30 -31 -32 -33 34 35 36 37 0
30 -31 -32 33 -34 -35 -36 -37 0
30 -31 -32 33 -34 -35 -36 37 0
30 -31 -32 33 -34 -35 36 -37 0
30 -31 -32 33 -34 -35 36 37 0
30 -31 -32 33 -34 35 -36 -37 0
30 -31 -32 33 -34 35 -36 37 0
30 -31 -32 33 -34 35 36 -37 0
30 -31 -32 33 34 -35 36 37 0
30 -31 -32 33 34 35 -36 37 0
30 -31 -32 33 34 35 36 -37 0
30 -31 32 -33 -34 -35 -36 -37 0
30 -31 32 -33 -34 -35 -36 37 0
30 -31 32 -33 -34 -35 36 -37 0
30 -31 32 -33 -34 -35 36 37 0
30 -31 32 -33 -34 35 -36 -37 0
30 -31 32 -33 -34 35 -36 37 0
30 -31 32 -33 -34 35 36 -37 0
30 -31 32 -33 34 -35 36 37 0
30 -31 32 -33 34 35 -36 37 0
30 -31 32 -33 34 35 36 -37 0
30 -31 32 33 -34 -35 -36 -37 0
30 -31 32 33 -34 -35 -36 37 0
30 -31 32 33 -34 -35 36 -37 0
30 -31 32 33 -34 35 -36 -37 0
30 -31 32 33 34 -35 -36 37 0
30 -31 32 33 34 -35 36 -37 0
30 -31 32 33 34 35 -36 -37 0
30 31 -32 -33 -34 -35 -36 -37 0
30 31 -32 -33 -34 -35 -36 37 0
30 31 -32 -33 -34 -35 36 -37 0
30 31 -32 -33 -34 -35 36 37 0
30 31 -32 -33 -34 35 -36 -37 0
30 31 -32 -33 -34 35 -36 37 0
30 31 -32 -33 -34 35 36 -37 0
30 31 -32 -33 34 -35 36 37 0
30 31 -32 -33 34 35 -36 37 0
30 31 -32 -33 34 35 36 -37 0
30 31 -32 33 -34 -35 -36 -37 0
30 31 -32 33 -34 -35 -36 37 0
30 31 -32 33 -34 -35 36 -37 0
30 31 -32 33 -34 35 -36 -37 0
30 31 -32 33 34 -35 -36 37 0
30 31 -32 33 34 -35 36 -37 0
30 31 -32 33 34 35 -36 -37 0
30 31 32 -33 -34 -35 -36 -37 0
30 31 32 -33 -34 -35 -36 37 0
30 31 32 -33 -34 -35 36 -37 0
30 31 32 -33 -34 35 -36 -37 0
30 31 32 -33 34 -35 -36 37 0
30 31 32 -33 34 -35 36 -37 0
30 31 32 -33 34 35 -36 -37 0
30 31 32 33 -34 -35 -36 -37 0
30 31 32 33 -34 35 36 37 0
30 31 32 33 34 -35 -36 -37 0
31 -32 -34 -35 -36 -37 0
31 -32 -34 -35 -36 37 0
31 -32 -34 -35 36 -37 0
31 -32 -34 -35 36 37 0
31 -32 -34 35 36 37 0
31 -32 34 -35 -36 -37 0
31 -32 34 -35 -36 37 0
31 -32 34 -35 36 -37 0
31 -32 34 35 -36 37 0
31 32 -34 -35 -36 -37 0
31 32 -34 -35 36 -37 0
31 32 -34 35 36 -37 0
31 32 34 -35 -36 -37 0
31 32 34 -35 36 37 0
31 32 34 35 -36 -37 0
33 -34 -35 -36 -37 -38 0
33 -34 -35 -36 -37 38 0
33 -34 -35 -36 37 -38 0
33 -34 -35 -36 37 38 0
33 -34 35 -36 -37 -38 0
33 -34 35 -36 -37 38 0
33 -34 35 36 37 -38 0
33 34 -35 -36 -37 -38 0
33 34 -35 -36 -37 38 0
33 34 -35 36 37 -38 0
33 34 35 -36 37 -38 0
33 34 35 -36 37 38 0
33 34 35 36 -37 -38 0
34 -35 -36 -37 -38 0
34 -35 -36 -37 38 0
34 -35 -36 37 38 0
34 -35 36 -37 -38 0
34 -35 36 -37 38 0
34 35 -36 -37 -38 0
34 35 -36 37 -38 0
34 35 36 -37 -38 0
36 -37 -38 0
1 2 -3 -4 -5 6 7 -8 9 -10 -11 -12 13 14 15 16 17 -18 -19 -20 -21 -22 -23 24 25 26 27 28 -29 -30 -31 -32 33 34 35 -36 -37 38 0
1 2 -3 -4 -5 6 7 -8 9 -10 -11 -12 13 14 15 16 17 -18 -19 -20 -21 22 -23 24 25 -26 27 -28 29 -30 31 32 33 -34 -35 36 37 -38 0
1 2 -3 -4 -5 6 7 -8 9 -10 -11 -12 13 -14 15 16 17 18 -19 20 21 -22 -23 24 -25 -26 -27 28 29 30 31 32 -33 -34 -35 36 37 -38 0
1 2 -3 -4 -5 6 7 -8 9 -10 11 -12 13 14 -15 16 -17 -18 -19 -20 21 22 23 24 25 -26 -27 -28 -29 30 31 32 -33 -34 -35 36 37 -38 0
1 2 -3 -4 -5 6 7 -8 9 -10 -11 -12 13 14 15 16 17 -18 -19 -20 -21 22 -23 24 25 -26 27 -28 -29 30 31 32 -33 -34 -35 36 37 -38 0
1 2 -3 -4 -5 6 7 -8 9 -10 -11 -12 13 14 15 16 17 -18 -19 20 -21 -22 -23 -24 25 -26 27 28 29 -30 31 -32 -33 34 -35 36 37 -38 0
1 2 -3 -4 -5 6 7 -8 9 -10 -11 -12 13 -14 15 16 17 18 -19 20 21 -22 23 24 -25 -26 -27 -28 29 30 31 32 -33 -34 -35 36 37 -38 0
1 2 -3 -4 -5 6 7 -8 9 -10 11 -12 13 14 -15 16 -17 -18 -19 20 -21 22 23 24 25 -26 -27 -28 -29 30 31 32 -33 -34 -35 36 37 -38 0
1 2 -3 -4 -5 6 7 8 9 -10 -11 -12 -13 -14 15 16 17 -18 19 20 21 -22 23 -24 -25 -26 -27 -28 29 30 31 32 -33 -34 -35 36 37 -38 0
1 2 -3 -4 -5 6 7 8 9 -10 -11 -12 -13 -14 15 16 17 -18 19 20 21 -22 -23 -24 -25 -26 -27 28 29 30 31 32 -33 -34 -35 36 37 -38 0
1 2 -3 -4 -5 6 7 -8 9 -10 -11 -12 13 14 15 16 17 -18 -19 -20 -21 -22 -23 24 25 26 27 28 -29 -30 31 -32 -33 34 -35 36 37 -38 0
1 2 -3 -4 -5 6 7 8 9 -10 11 -12 -13 -14 -15 16 -17 -18 19 20 21 22 23 -24 -25 -26 -27 -28 29 30 31 32 -33 -34 -35 36 37 -38 0
1 2 -3 -4 -5 6 7 -8 9 -10 11 -12 13 14 -15 16 -17 -18 -19 20 -21 22 23 -24 25 -26 -27 -28 29 30 31 32 -33 -34 -35 36 37 -38 0
1 2 -3 -4 -5 6 7 -8 9 -10 11 -12 13 14 -15 16 -17 -18 -19 -20 -21 22 23 24 25 26 -27 -28 29 -30 31 32 33 -34 -35 36 37 -38 0
1 2 -3 -4 -5 6 7 -8 9 -10 11 -12 13 14 -15 16 -17 -18 -19 20 -21 22 23 -24 25 -26 27 -28 29 -30 31 -32 -33 34 35 -36 -37 38 0
1 2 -3 -4 -5 6 7 -8 9 10 -11 -12 13 -14 -15 16 17 18 -19 20 21 -22 -23 24 -25 26 -27 28 -29 30 -31 32 33 -34 -35 36 37 -38 0
1 2 -3 -4 -5 6 7 -8 9 -10 -11 -12 13 -14 15 16 17 18 -19 20 21 -22 -23 24 -25 -26 27 28 29 30 -31 -32 -33 34 35 -36 -37 38 0
1 2 -3 -4 -5 6 7 8 9 -10 -11 -12 -13 -14 15 16 17 -18 19 20 21 -22 -23 -24 -25 -26 27 28 29 30 -31 -32 -33 34 35 -36 -37 38 0
1 2 -3 -4 -5 6 7 8 9 -10 -11 -12 -13 -14 15 16 17 -18 19 20 -21 -22 -23 -24 25 26 27 28 -29 -30 -31 -32 33 34 35 -36 -37 38 0
1 2 -3 -4 -5 6 7 -8 9 -10 -11 -12 13 14 15 16 17 18 -19 -20 -21 -22 -23 24 25 26 27 28 -29 -30 -31 -32 33 34 35 -36 -37 38 0
1 2 -3 -4 -5 6 7 -8 9 -10 -11 -12 13 14 15 16 17 -18 -19 -20 -21 -22 -23 24 25 26 27 28 29 -30 -31 -32 33 34 35 -36 -37 38 0
1 2 -3 -4 -5 6 7 -8 9 -10 -11 -12 13 14 15 16 17 -18 -19 -20 -21 -22 -23 24 25 26 27 28 -29 -30 -31 -32 33 34 35 36 -37 38 0
1 2 -3 -4 -5 6 7 -8 9 10 -11 -12 13 -14 -15 16 17 18 -19 20 21 -22 -23 24 -25 -26 27 28 29 30 -31 -32 -33 34 35 -36 -37 38 0
1 2 -3 -4 -5 6 7 -8 9 -10 -11 -12 13 14 15 16 17 18 -19 -20 -21 22 -23 24 25 -26 27 -28 29 -30 31 32 33 -34 -35 36 37 -38 0
1 2 -3 -4 -5 6 7 -8 9 10 -11 -12 13 -14 -15 16 17 18 -19 20 21 -22 -23 24 -25 26 -27 28 -29 30 31 32 -33 -34 -35 36 37 -38 0
1 2 -3 -4 -5 6 7 -8 9 -10 11 -12 13 14 -15 16 -17 18 -19 -20 21 22 23 24 25 -26 -27 -28 -29 30 31 32 -33 -34 -35 36 37 -38 0
1 2 -3 -4 -5 6 7 -8 9 -10 -11 -12 13 14 15 16 17 18 -19 -20 -21 22 -23 24 25 -26 27 -28 -29 30 31 32 -33 -34 -35 36 37 -38 0
1 2 -3 -4 -5 6 7 -8 9 -10 11 -12 13 14 -15 16 -17 18 -19 -20 -21 22 23 24 25 26 -27 -28 29 -30 31 32 33 -34 -35 36 37 -38 0
1 2 -3 -4 -5 6 7 -8 9 -10 -11 12 13 14 -15 16 17 -18 -19 20 21 -22 -23 24 -25 -26 27 28 29 30 -31 -32 -33 34 35 -36 -37 38 0
1 2 -3 -4 -5 6 7 8 9 -10 -11 -12 -13 -14 15 16 17 -18 19 20 21 -22 23 -24 -25 -26 -27 -28 29 30 31 32 33 -34 -35 36 37 -38 0
1 2 -3 -4 5 -6 7 8 -9 -10 11 12 -13 14 15 -16 -17 18 -19 20 -21 22 23 -24 25 -26 -27 -28 29 30 31 32 -33 -34 -35 36 37 -38 0
1 2 -3 -4 -5 6 7 8 -9 10 -11 12 -13 14 15 -16 -17 18 -19 20 -21 22 23 -24 25 -26 -27 -28 29 30 31 32 -33 -34 -35 36 37 -38 0
1 2 -3 -4 -5 6 7 -8 9 10 -11 -12 13 -14 -15 16 17 18 -19 20 21 -22 23 24 -25 26 -27 -28 -29 30 31 32 -33 -34 -35 36 37 -38 0
1 2 -3 -4 -5 6 7 -8 9 10 -11 12 13 -14 15 -16 -17 18 -19 -20 21 22 23 24 25 -26 -27 -28 -29 30 31 32 -33 -34 -35 36 37 -38 0
1 2 -3 -4 -5 6 7 -8 9 -10 -11 -12 13 14 15 16 17 18 -19 -20 21 -22 -23 24 -25 26 -27 28 29 30 -31 32 33 -34 -35 36 37 -38 0
1 2 -3 -4 -5 6 7 -8 9 -10 -11 -12 13 -14 15 16 17 18 -19 20 21 -22 23 24 -25 -26 -27 -28 29 30 31 32 33 -34 -35 36 37 -38 0
1 2 -3 -4 -5 6 7 -8 9 -10 -11 -12 13 14 15 16 17 18 -19 -20 -21 -22 -23 24 25 26 27 28 -29 -30 31 -32 -33 34 -35 36 37 -38 0
1 2 -3 -4 -5 6 7 8 9 -10 -11 -12 -13 -14 15 16 17 -18 19 20 21 -22 -23 -24 -25 -26 27 28 29 30 -31 32 33 -34 -35 36 37 -38 0
1 2 -3 -4 -5 6 7 -8 9 -10 -11 -12 13 -14 15 16 17 18 -19 20 21 -22 -23 24 -25 -26 -27 28 29 30 31 32 33 -34 -35 36 37 -38 0
1 -2 -3 4 5 -6 7 8 -9 -10 11 12 -13 14 15 -16 -17 18 -19 20 -21 22 23 -24 25 -26 -27 -28 29 30 31 32 -33 -34 -35 36 37 -38 0
1 2 -3 -4 -5 6 7 8 -9 10 -11 -12 -13 14 15 -16 17 18 -19 20 -21 22 23 -24 25 -26 -27 -28 29 30 31 32 -33 -34 -35 36 37 -38 0
1 2 -3 -4 -5 6 7 8 9 -10 -11 -12 -13 -14 15 16 17 -18 19 20 -21 -22 -23 -24 25 26 27 28 -29 -30 -31 -32 33 34 35 36 -37 38 0
1 -2 -3 4 5 -6 7 8 -9 -10 11 12 -13 14 15 -16 -17 18 -19 20 -21 22 23 -24 25 -26 27 -28 29 -30 31 -32 -33 34 35 -36 -37 38 0
1 2 -3 -4 5 -6 7 8 -9 -10 11 12 -13 14 15 -16 -17 18 -19 20 -21 22 23 -24 25 -26 27 -28 29 -30 31 -32 -33 34 35 -36 -37 38 0
1 2 -3 -4 -5 6 7 8 9 -10 -11 -12 -13 -14 15 16 17 -18 19 20 21 -22 -23 -24 -25 -26 -27 28 29 30 31 32 33 -34 -35 36 37 -38 0
1 2 -3 -4 -5 6 7 -8 9 -10 -11 12 13 14 15 16 17 -18 -19 -20 -21 -22 -23 24 25 26 27 28 -29 -30 -31 -32 33 34 35 -36 -37 38 0
1 2 -3 -4 -5 6 7 8 9 -10 11 -12 -13 -14 -15 16 -17 -18 19 20 21 22 23 -24 -25 -26 -27 -28 29 30 31 32 33 -34 -35 36 37 -38 0
1 2 -3 -4 -5 6 7 8 -9 10 -11 12 -13 14 15 -16 -17 18 -19 20 -21 22 23 -24 25 -26 27 -28 29 -30 31 -32 -33 34 35 -36 -37 38 0
1 2 -3 -4 -5 6 7 -8 9 10 -11 -12 13 -14 -15 16 17 18 -19 20 21 -22 -23 24 -25 26 27 28 29 -30 -31 -32 33 34 35 -36 -37 38 0
1 2 -3 -4 -5 6 7 -8 9 10 -11 -12 13 -14 -15 16 17 18 -19 20 21 -22 -23 24 -25 26 -27 28 29 30 -31 32 33 -34 -35 36 37 -38 0
1 2 -3 -4 -5 6 7 8 9 -10 -11 -12 -13 -14 15 16 17 -18 19 20 -21 -22 -23 24 -25 26 27 28 -29 30 -31 32 33 -34 -35 36 37 -38 0
1 2 -3 -4 -5 6 7 -8 9 10 -11 -12 13 -14 15 -16 17 18 -19 -20 21 22 23 24 25 -26 -27 -28 -29 30 31 32 -33 -34 -35 36 37 -38 0
1 2 -3 -4 -5 6 7 -8 9 -10 -11 -12 13 14 15 16 17 -18 -19 -20 -21 -22 -23 24 25 26 27 28 29 -30 -31 -32 33 34 35 36 -37 38 0
1 2 -3 -4 -5 6 7 -8 9 -10 -11 -12 13 14 15 16 17 18 -19 -20 -21 -22 -23 24 25 26 27 28 29 -30 -31 -32 33 34 35 -36 -37 38 0
1 2 -3 -4 -5 6 7 -8 9 -10 -11 -12 13 14 15 16 17 18 -19 -20 -21 -22 -23 24 25 26 27 28 -29 -30 -31 -32 33 34 35 36 -37 38 0
1 2 -3 -4 -5 6 7 -8 9 10 -11 -12 13 -14 15 -16 17 18 -19 -20 21 22 -23 24 25 -26 -27 28 -29 30 31 -32 -33 34 35 -36 -37 38 0
1 2 -3 -4 -5 6 7 -8 9 -10 -11 -12 13 -14 15 16 17 18 -19 20 21 -22 -23 24 -25 -26 27 28 29 30 -31 32 33 -34 -35 36 37 -38 0
1 2 -3 -4 -5 6 7 -8 9 -10 11 -12 13 14 -15 16 -17 -18 -19 20 -21 22 23 24 -25 26 -27 -28 29 30 -31 32 33 -34 35 36 -37 38 0
1 2 -3 -4 -5 6 7 -8 9 10 -11 -12 13 -14 15 -16 17 18 -19 -20 21 -22 23 24 25 -26 27 -28 29 -30 31 32 33 -34 -35 36 37 -38 0
1 2 -3 -4 -5 6 7 -8 9 10 -11 -12 13 -14 -15 16 17 18 -19 20 21 -22 -23 24 -25 -26 27 28 29 30 -31 32 33 -34 -35 36 37 -38 0
1 2 -3 -4 -5 6 7 -8 9 -10 11 -12 13 14 15 -16 17 -18 -19 -20 21 -22 23 24 25 -26 27 -28 29 -30 31 32 33 -34 -35 36 37 -38 0
1 2 -3 -4 -5 6 7 -8 9 10 -11 12 13 -14 -15 16 17 18 -19 20 21 -22 -23 24 -25 26 -27 28 -29 30 -31 32 33 -34 -35 36 37 -38 0
1 2 -3 -4 -5 6 7 8 9 -10 11 -12 13 14 -15 16 -17 -18 -19 -20 21 22 23 24 25 -26 -27 -28 -29 30 31 32 -33 -34 -35 36 37 -38 0
1 2 -3 -4 -5 6 7 -8 9 10 -11 12 13 -14 -15 -16 17 18 -19 20 21 22 23 24 -25 -26 -27 -28 29 30 31 32 -33 -34 -35 36 37 -38 0
1 2 -3 -4 -5 6 7 -8 9 -10 -11 12 13 14 15 16 17 -18 -19 20 -21 -22 -23 -24 25 -26 27 28 29 -30 31 -32 -33 34 -35 36 37 -38 0
1 2 -3 -4 -5 6 7 8 9 -10 11 -12 -13 -14 -15 16 -17 -18 19 20 21 22 23 -24 -25 -26 -27 -28 29 30 31 32 -33 -34 35 -36 37 38 0
1 2 -3 -4 -5 6 7 -8 9 -10 11 -12 13 14 -15 16 -17 -18 -19 20 -21 22 23 24 25 -26 27 -28 -29 30 -31 32 33 -34 35 36 -37 38 0
1 2 -3 -4 -5 6 7 -8 9 10 -11 12 13 -14 -15 -16 17 18 -19 20 21 22 -23 24 -25 26 -27 28 -29 30 -31 32 33 -34 -35 36 37 -38 0
1 2 -3 -4 -5 6 7 -8 9 -10 11 -12 13 14 -15 16 -17 -18 -19 20 -21 22 23 -24 25 -26 27 28 29 -30 31 -32 -33 34 -35 36 37 -38 0
1 2 -3 -4 -5 6 7 -8 9 -10 -11 12 13 14 -15 16 17 -18 -19 20 21 -22 -23 24 -25 -26 27 28 29 30 -31 32 33 -34 -35 36 37 -38 0
1 2 -3 -4 -5 6 7 -8 9 10 -11 12 13 14 -15 -16 17 -18 -19 -20 21 22 -23 24 25 -26 -27 28 -29 30 31 -32 -33 34 35 -36 -37 38 0
1 2 -3 -4 -5 6 7 -8 9 -10 -11 -12 13 -14 15 16 17 18 -19 20 21 -22 23 24 -25 -26 -27 28 29 30 31 32 -33 -34 -35 36 37 -38 0
1 2 -3 -4 -5 6 7 8 9 -10 -11 -12 -13 -14 15 16 17 -18 19 20 21 -22 23 -24 -25 -26 -27 28 29 30 31 32 -33 -34 -35 36 37 -38 0
1 2 -3 -4 -5 6 7 -8 9 -10 -11 12 13 -14 15 16 17 18 -19 20 21 -22 -23 24 -25 -26 -27 28 29 30 31 32 -33 -34 -35 36 37 -38 0
1 2 -3 -4 -5 6 7 -8 9 10 -11 12 13 14 -15 -16 17 -18 -19 -20 21 22 23 24 25 -26 -27 -28 -29 30 31 32 -33 -34 -35 36 37 -38 0
1 2 -3 -4 -5 6 7 -8 9 -10 -11 -12 13 -14 15 16 17 18 -19 20 21 -22 23 24 -25 -26 -27 -28 29 30 31 32 -33 -34 35 -36 37 38 0
1 2 -3 -4 -5 6 7 8 9 -10 -11 -12 -13 -14 15 16 17 -18 19 20 21 -22 -23 -24 -25 -26 27 28 29 30 -31 -32 33 -34 35 36 37 38 0
1 -2 -3 4 5 -6 7 8 9 10 11 -12 -13 -14 -15 -16 17 -18 19 20 21 22 -23 -24 -25 -26 -27 28 29 30 -31 32 -33 34 35 -36 -37 38 0
1 2 -3 -4 -5 6 7 -8 9 -10 -11 12 13 14 15 -16 17 -18 -19 -20 -21 22 23 24 25 26 -27 -28 29 -30 31 32 33 -34 -35 36 37 -38 0
1 2 -3 -4 -5 6 7 8 9 -10 -11 12 -13 -14 15 16 17 -18 19 20 21 -22 -23 -24 -25 -26 -27 28 29 30 31 32 -33 -34 -35 36 37 -38 0
1 2 -3 -4 -5 6 7 8 -9 10 -11 12 -13 14 15 -16 17 18 -19 20 -21 22 -23 -24 25 -26 27 28 29 -30 -31 -32 33 34 35 -36 -37 38 0
1 2 -3 -4 -5 6 7 -8 9 -10 -11 -12 13 14 15 16 17 -18 -19 20 -21 -22 23 -24 25 -26 -27 28 29 30 31 32 -33 -34 -35 36 37 -38 0
1 2 -3 -4 -5 6 7 -8 9 10 -11 12 13 14 -15 -16 17 -18 -19 -20 21 22 -23 24 25 -26 27 28 29 -30 -31 -32 33 34 35 -36 -37 38 0
1 2 -3 -4 -5 6 7 -8 9 -10 -11 -12 13 -14 15 16 17 18 -19 20 21 -22 -23 24 -25 -26 27 28 29 30 -31 -32 33 -34 35 36 37 38 0
1 2 -3 -4 -5 6 7 -8 9 -10 -11 12 13 14 15 -16 17 -18 -19 -20 21 22 23 24 25 -26 -27 -28 -29 30 31 32 -33 -34 -35 36 37 -38 0
1 2 -3 -4 -5 6 7 -8 9 -10 -11 12 13 14 15 16 17 18 -19 -20 -21 -22 -23 24 25 26 27 28 -29 -30 -31 -32 33 34 35 -36 -37 38 0
1 2 -3 -4 -5 6 7 -8 9 -10 -11 12 13 14 15 -16 17 -18 -19 20 -21 22 23 -24 25 -26 -27 -28 29 30 31 32 -33 -34 -35 36 37 -38 0
1 2 -3 -4 -5 6 7 -8 9 10 -11 -12 13 -14 -15 16 17 18 -19 20 21 -22 23 24 -25 -26 -27 28 29 30 31 32 -33 -34 -35 36 37 -38 0
1 2 -3 -4 -5 6 7 -8 9 -10 -11 -12 13 -14 15 16 17 18 -19 20 21 -22 -23 24 -25 -26 27 28 29 30 -31 32 -33 34 35 -36 -37 38 0
1 2 -3 -4 -5 6 7 -8 9 -10 -11 12 13 14 -15 16 17 -18 -19 20 -21 22 23 -24 25 -26 27 -28 29 -30 31 -32 -33 34 35 -36 -37 38 0
1 2 -3 -4 -5 6 7 -8 9 -10 -11 12 13 -14 15 16 17 18 -19 20 21 -22 -23 24 -25 -26 27 28 29 30 -31 -32 -33 34 35 -36 -37 38 0
1 2 -3 -4 -5 6 7 -8 9 -10 -11 -12 13 14 15 16 17 -18 -19 -20 -21 -22 23 24 25 26 -27 28 29 -30 31 32 33 -34 -35 36 37 -38 0
1 2 -3 -4 -5 6 7 -8 9 -10 -11 12 13 14 15 16 17 -18 -19 -20 -21 -22 -23 24 25 26 27 28 -29 -30 31 -32 -33 34 -35 36 37 -38 0
1 -2 -3 4 5 -6 7 8 -9 -10 11 -12 -13 14 15 -16 17 18 -19 20 21 -22 23 24 -25 -26 27 -28 29 30 -31 32 33 -34 35 36 -37 38 0
1 2 -3 -4 -5 6 7 -8 9 10 -11 -12 13 -14 -15 16 17 18 -19 20 21 -22 -23 24 -25 -26 27 28 29 30 -31 32 33 -34 35 36 -37 38 0
1 2 -3 -4 -5 6 7 8 -9 10 -11 -12 13 -14 15 16 17 -18 -19 20 -21 22 -23 24 25 -26 27 -28 -29 30 31 32 -33 -34 -35 36 37 -38 0
1 2 -3 -4 -5 6 7 -8 9 -10 11 -12 13 14 -15 16 -17 -18 -19 -20 -21 22 23 24 25 26 -27 -28 29 -30 31 32 33 -34 35 -36 37 38 0
1 2 -3 -4 5 -6 7 8 -9 -10 11 12 -13 14 15 -16 -17 18 -19 20 21 -22 23 24 -25 -26 27 28 29 30 -31 -32 -33 34 35 -36 -37 38 0
1 2 -3 -4 -5 6 7 -8 9 -10 -11 12 13 14 15 16 17 -18 -19 -20 -21 -22 -23 24 25 26 27 28 -29 -30 -31 -32 33 34 35 36 -37 38 0
1 2 -3 -4 -5 6 7 -8 9 -10 -11 12 13 14 15 16 17 -18 -19 -20 -21 -22 -23 24 25 26 27 28 29 -30 -31 -32 33 34 35 -36 -37 38 0
1 -2 -3 4 5 -6 7 8 -9 -10 11 12 -13 14 15 -16 -17 18 -19 20 -21 22 23 24 25 -26 27 -28 29 -30 31 -32 -33 34 35 -36 -37 38 0
1 2 -3 -4 -5 6 7 8 -9 10 -11 12 -13 14 15 -16 17 -18 19 20 21 -22 -23 -24 -25 -26 27 28 29 30 -31 -32 -33 34 35 -36 -37 38 0
1 -2 -3 4 5 -6 7 8 -9 -10 11 -12 -13 14 15 -16 17 18 -19 20 21 -22 23 24 -25 -26 27 28 29 30 -31 -32 -33 34 35 -36 -37 38 0
1 2 -3 -4 -5 6 7 -8 9 -10 -11 -12 13 -14 15 16 17 18 -19 20 21 -22 23 24 -25 -26 -27 28 29 30 31 -32 33 -34 35 36 -37 38 0
1 2 -3 -4 -5 6 7 -8 9 -10 -11 -12 13 14 15 16 17 -18 -19 -20 -21 22 -23 24 25 -26 27 -28 29 30 31 32 33 -34 -35 36 37 -38 0
1 2 -3 -4 -5 6 7 -8 9 10 -11 12 13 -14 -15 16 17 18 -19 20 21 -22 -23 24 -25 -26 27 28 29 30 -31 -32 -33 34 35 -36 -37 38 0
1 2 -3 -4 -5 6 7 -8 9 -10 -11 -12 13 -14 15 16 17 18 -19 20 21 -22 -23 24 -25 -26 -27 28 29 30 31 32 -33 -34 35 -36 37 38 0
1 -2 -3 4 5 -6 7 8 9 10 11 -12 -13 -14 -15 -16 17 -18 19 20 21 22 -23 -24 -25 -26 27 28 29 30 -31 -32 -33 34 35 -36 -37 38 0
1 2 -3 -4 -5 6 7 -8 9 -10 11 -12 13 14 -15 16 -17 -18 -19 20 -21 22 23 -24 25 -26 -27 -28 29 30 31 32 -33 -34 35 -36 37 38 0
1 2 -3 -4 5 -6 7 8 -9 -10 11 12 -13 14 15 -16 -17 18 -19 20 -21 22 23 24 25 -26 27 -28 29 -30 31 -32 -33 34 35 -36 -37 38 0
1 2 -3 -4 -5 6 7 8 9 -10 -11 12 -13 -14 15 16 17 -18 19 20 -21 -22 -23 -24 25 26 27 28 -29 -30 -31 -32 33 34 35 -36 -37 38 0
1 2 -3 -4 -5 6 7 8 9 -10 -11 -12 -13 -14 15 16 17 -18 19 20 21 -22 23 -24 -25 -26 -27 28 29 30 31 -32 33 -34 35 36 -37 38 0
1 2 -3 -4 -5 6 7 8 -9 10 -11 -12 -13 14 15 -16 17 -18 19 20 21 -22 23 -24 -25 -26 27 -28 29 30 -31 32 33 -34 35 36 -37 38 0
1 2 -3 -4 -5 6 7 -8 9 -10 11 -12 13 -14 15 -16 17 18 -19 20 21 -22 23 24 -25 -26 27 28 29 30 -31 -32 -33 34 35 -36 -37 38 0
1 -2 -3 4 5 -6 7 8 -9 -10 11 12 -13 14 15 -16 -17 18 -19 20 -21 22 23 -24 25 -26 27 -28 -29 30 -31 32 33 -34 35 36 -37 38 0
1 2 -3 -4 -5 6 7 -8 9 -10 -11 -12 13 14 15 16 17 18 -19 -20 -21 -22 -23 24 25 26 27 28 29 -30 -31 -32 33 34 35 36 -37 38 0
1 2 -3 -4 -5 6 7 -8 9 10 -11 -12 13 -14 -15 16 17 18 -19 20 21 -22 23 24 -25 -26 27 28 29 30 -31 -32 -33 34 35 -36 -37 38 0
1 2 -3 -4 -5 6 7 8 9 -10 -11 12 -13 -14 15 16 17 -18 19 20 21 -22 -23 -24 -25 -26 27 28 29 30 -31 -32 -33 34 35 -36 -37 38 0
1 2 -3 -4 -5 6 7 8 9 -10 -11 -12 -13 -14 15 16 17 -18 19 20 -21 -22 -23 24 -25 26 27 28 -29 30 -31 -32 33 -34 35 36 37 38 0
1 2 -3 -4 5 -6 7 8 -9 -10 11 12 -13 14 15 -16 -17 18 -19 20 -21 22 23 -24 25 -26 27 -28 -29 30 -31 32 33 -34 35 36 -37 38 0
1 2 -3 -4 -5 6 7 8 -9 10 -11 12 -13 14 15 -16 -17 18 -19 20 -21 22 23 24 25 -26 27 -28 29 -30 31 -32 -33 34 35 -36 -37 38 0
1 2 -3 -4 -5 6 7 -8 9 10 -11 -12 13 -14 -15 16 17 18 -19 20 21 -22 23 24 -25 26 -27 28 -29 30 -31 -32 33 34 35 -36 -37 38 0
1 2 -3 -4 -5 6 7 -8 9 -10 -11 -12 13 -14 15 16 17 18 -19 20 21 -22 -23 24 -25 -26 27 28 29 30 -31 32 33 -34 35 36 -37 38 0
1 2 -3 -4 -5 6 7 8 -9 10 -11 12 -13 14 15 -16 -17 18 -19 20 -21 22 23 -24 25 -26 27 -28 -29 30 -31 32 33 -34 35 36 -37 38 0
1 2 -3 -4 -5 6 7 8 9 -10 11 -12 13 14 -15 16 -17 -18 -19 -20 -21 22 23 24 25 26 -27 -28 29 -30 31 32 33 -34 -35 36 37 -38 0
1 2 -3 -4 -5 6 7 8 9 -10 -11 -12 -13 -14 15 16 17 -18 19 20 21 -22 -23 -24 -25 -26 27 28 29 30 -31 32 -33 34 35 -36 -37 38 0
1 2 -3 -4 -5 6 7 8 9 -10 -11 -12 -13 -14 15 16 17 -18 19 20 21 -22 23 -24 -25 -26 -27 -28 29 30 31 32 -33 -34 35 -36 37 38 0
1 -2 -3 4 5 -6 7 8 -9 -10 11 12 -13 14 15 -16 -17 18 -19 20 -21 22 23 24 -25 26 -27 -28 29 30 -31 32 33 -34 35 36 -37 38 0
1 2 -3 -4 -5 6 7 8 9 -10 -11 -12 -13 -14 15 16 17 -18 19 20 21 -22 -23 -24 -25 -26 27 28 29 30 -31 32 33 -34 35 36 -37 38 0
1 2 -3 -4 -5 6 7 -8 9 -10 -11 12 13 14 15 -16 17 -18 -19 -20 21 22 -23 24 25 -26 -27 28 -29 30 31 -32 -33 34 35 -36 -37 38 0
1 2 -3 -4 -5 6 7 8 9 -10 11 -12 -13 -14 -15 16 -17 -18 19 20 21 22 23 24 -25 26 -27 -28 -29 30 -31 32 33 -34 35 36 -37 38 0
1 2 -3 -4 5 -6 7 8 9 10 11 12 -13 -14 -15 -16 -17 -18 19 20 21 22 23 -24 -25 -26 -27 -28 29 30 31 32 -33 -34 -35 36 37 -38 0
1 2 -3 -4 -5 6 7 -8 9 10 -11 -12 13 -14 15 -16 17 18 -19 20 21 -22 23 24 -25 -26 27 -28 29 30 -31 32 33 -34 35 36 -37 38 0
1 2 -3 -4 -5 6 7 -8 9 -10 11 -12 13 14 -15 16 -17 18 -19 -20 21 22 23 24 -25 26 -27 -28 29 30 -31 32 33 -34 35 36 -37 38 0
1 2 -3 -4 -5 6 7 -8 9 -10 11 -12 13 -14 15 -16 17 18 -19 20 21 -22 23 24 -25 -26 27 -28 29 30 -31 32 33 -34 35 36 -37 38 0
1 2 -3 -4 -5 6 7 8 9 -10 -11 -12 -13 -14 15 16 17 -18 19 20 21 -22 -23 -24 -25 -26 -27 28 29 30 31 32 -33 -34 35 -36 37 38 0
1 -2 -3 4 5 -6 7 8 9 10 11 -12 -13 -14 -15 -16 17 -18 19 20 21 -22 23 -24 -25 -26 27 28 29 30 -31 -32 -33 34 35 -36 -37 38 0
1 2 -3 -4 -5 6 7 -8 9 10 -11 12 13 -14 15 -16 -17 18 -19 -20 21 22 23 24 25 -26 27 -28 29 -30 31 -32 -33 34 35 -36 -37 38 0
1 2 -3 -4 -5 6 7 8 -9 10 -11 -12 -13 14 15 -16 17 18 -19 20 -21 22 23 24 -25 26 -27 -28 29 30 -31 32 33 -34 35 36 -37 38 0
1 2 -3 -4 -5 6 7 8 9 -10 11 -12 -13 -14 15 -16 17 -18 19 20 21 -22 23 -24 -25 -26 27 -28 29 30 -31 32 33 -34 35 36 -37 38 0
1 2 -3 -4 -5 6 7 -8 9 10 -11 -12 13 -14 -15 16 17 18 -19 20 21 -22 -23 24 -25 26 27 28 29 -30 -31 -32 33 34 35 36 -37 38 0
1 -2 -3 4 5 -6 7 8 -9 -10 11 12 -13 14 15 -16 -17 18 -19 20 21 -22 23 24 -25 -26 27 28 29 30 -31 -32 -33 34 35 -36 -37 38 0
1 2 -3 -4 5 -6 7 8 9 10 11 -12 -13 -14 -15 -16 17 -18 19 20 21 22 -23 -24 -25 -26 -27 28 29 30 31 -32 33 -34 35 36 -37 38 0
1 -2 -3 4 5 -6 7 8 -9 -10 11 12 -13 14 15 -16 -17 -18 19 20 -21 22 23 -24 -25 26 -27 -28 29 30 -31 32 -33 34 35 -36 -37 38 0
1 2 -3 -4 5 -6 7 8 9 10 11 -12 -13 -14 -15 -16 17 -18 19 20 21 -22 23 -24 -25 -26 27 28 29 30 -31 -32 -33 34 35 -36 -37 38 0
1 2 -3 -4 5 -6 7 8 9 10 11 -12 -13 -14 -15 -16 17 -18 19 20 21 22 -23 -24 -25 -26 27 28 29 30 -31 -32 -33 34 35 -36 -37 38 0
1 -2 -3 4 5 -6 7 8 -9 -10 11 12 -13 14 15 -16 -17 -18 19 20 -21 22 23 -24 -25 26 -27 28 29 30 -31 -32 -33 34 35 -36 -37 38 0
1 2 -3 -4 -5 6 7 -8 9 10 -11 12 13 -14 15 -16 -17 18 -19 20 -21 22 23 24 25 -26 27 -28 29 -30 31 -32 -33 34 35 -36 -37 38 0
1 2 -3 -4 -5 6 7 8 9 -10 -11 -12 -13 -14 15 16 17 -18 19 20 21 -22 -23 -24 -25 26 -27 28 29 30 -31 32 -33 34 35 -36 -37 38 0
1 2 -3 -4 -5 6 7 -8 9 10 -11 -12 13 -14 -15 16 17 18 -19 20 21 -22 -23 24 -25 -26 27 28 29 30 -31 32 -33 34 35 -36 -37 38 0
1 2 -3 -4 -5 6 7 -8 9 10 -11 12 13 -14 15 -16 17 18 -19 20 21 -22 -23 24 -25 -26 27 28 29 30 -31 -32 -33 34 35 -36 -37 38 0
1 2 -3 -4 -5 6 7 -8 9 10 -11 -12 13 -14 15 -16 17 18 -19 -20 21 22 -23 24 25 -26 -27 28 -29 30 31 -32 33 -34 35 -36 37 38 0
1 2 -3 -4 -5 6 7 -8 9 10 -11 -12 13 -14 -15 16 17 18 -19 20 21 -22 23 24 -25 -26 -27 28 29 30 31 -32 33 -34 35 36 -37 38 0
1 2 -3 -4 -5 6 7 -8 9 10 -11 12 13 -14 15 -16 17 18 -19 -20 21 -22 -23 24 25 -26 27 28 29 -30 31 -32 -33 34 -35 36 37 -38 0
1 2 -3 -4 -5 6 7 8 -9 10 -11 -12 -13 14 15 -16 17 -18 19 20 21 -22 23 -24 -25 -26 27 28 29 30 -31 -32 -33 34 35 -36 -37 38 0
1 2 -3 -4 -5 6 7 -8 9 10 -11 12 13 -14 -15 -16 17 18 -19 20 21 22 -23 24 -25 26 -27 28 -29 30 -31 -32 33 34 35 -36 -37 38 0
1 2 -3 -4 -5 6 7 8 9 -10 11 -12 -13 -14 15 -16 17 -18 19 20 21 -22 23 -24 -25 -26 27 28 29 30 -31 -32 -33 34 35 -36 -37 38 0
1 -2 -3 4 5 -6 7 8 9 10 11 -12 -13 -14 -15 -16 17 -18 19 20 21 22 -23 -24 -25 -26 -27 28 29 30 31 -32 33 -34 35 36 -37 38 0
1 2 -3 -4 -5 6 7 -8 9 10 -11 -12 13 -14 -15 16 17 18 -19 20 21 22 -23 24 -25 -26 -27 28 29 30 -31 32 -33 34 35 -36 -37 38 0
1 2 -3 -4 5 -6 7 8 -9 -10 11 12 -13 14 15 -16 -17 -18 19 20 -21 22 23 -24 -25 26 -27 -28 29 30 -31 32 -33 34 35 -36 -37 38 0
1 2 -3 -4 -5 6 7 -8 9 10 -11 -12 13 -14 -15 16 17 18 -19 20 21 -22 -23 24 -25 -26 27 28 29 30 -31 -32 33 -34 35 36 37 38 0
1 2 -3 -4 -5 6 7 -8 9 10 -11 12 13 -14 15 -16 17 18 -19 -20 21 -22 -23 24 25 26 27 28 -29 -30 -31 -32 33 34 35 -36 -37 38 0
1 2 -3 -4 5 -6 7 8 -9 -10 11 12 -13 14 15 -16 -17 -18 19 20 -21 22 23 -24 -25 26 -27 28 29 30 -31 -32 -33 34 35 -36 -37 38 0
1 2 -3 -4 -5 6 7 -8 9 10 -11 12 13 -14 -15 -16 17 18 -19 20 21 22 -23 24 -25 -26 27 28 29 30 -31 -32 -33 34 35 -36 -37 38 0
1 2 -3 -4 -5 6 7 8 -9 10 -11 12 -13 14 15 -16 -17 18 -19 20 -21 22 23 24 -25 26 -27 -28 29 30 -31 32 33 -34 35 36 -37 38 0
1 2 -3 -4 -5 6 7 8 -9 10 -11 12 13 -14 15 -16 -17 -18 -19 20 -21 22 23 24 25 -26 27 -28 -29 30 -31 32 33 -34 35 36 -37 38 0
1 2 -3 -4 5 -6 7 8 9 10 11 -12 -13 -14 -15 -16 17 -18 19 20 21 22 -23 -24 -25 -26 -27 28 29 30 -31 32 -33 34 35 -36 -37 38 0
1 2 -3 -4 -5 6 7 -8 9 10 -11 -12 13 -14 -15 16 17 18 -19 20 21 22 -23 24 -25 -26 -27 28 29 30 31 -32 33 -34 35 36 -37 38 0
1 2 -3 -4 -5 6 7 -8 9 10 -11 -12 13 -14 15 -16 17 18 -19 20 21 -22 23 24 -25 -26 27 28 29 30 -31 -32 -33 34 35 -36 -37 38 0
1 2 -3 -4 -5 6 7 -8 9 10 -11 12 13 -14 15 -16 -17 -18 -19 20 -21 22 23 24 25 -26 27 -28 -29 30 -31 32 33 -34 35 36 -37 38 0
1 2 -3 -4 -5 6 7 -8 9 10 -11 12 13 -14 -15 -16 17 18 -19 20 21 22 -23 24 -25 -26 -27 28 29 30 31 -32 33 -34 35 36 -37 38 0
1 2 -3 -4 -5 6 7 -8 9 10 -11 12 13 -14 -15 -16 17 18 -19 20 21 22 -23 24 -25 -26 -27 28 29 30 -31 32 -33 34 35 -36 -37 38 0
1 2 -3 -4 5 -6 7 8 -9 -10 11 12 -13 14 15 -16 -17 18 -19 20 -21 22 23 24 -25 26 -27 -28 29 30 -31 32 33 -34 35 36 -37 38 0
1 2 -3 -4 -5 6 7 8 9 -10 -11 12 -13 -14 15 16 17 -18 19 20 -21 -22 -23 24 -25 26 27 28 -29 30 -31 32 33 -34 -35 36 37 -38 0
1 2 -3 -4 -5 6 7 -8 9 -10 -11 -12 13 14 15 16 17 18 -19 -20 -21 22 -23 24 25 -26 27 -28 29 30 31 32 33 -34 -35 36 37 -38 0
1 2 -3 -4 -5 6 7 -8 9 -10 -11 12 13 14 15 -16 17 18 -19 -20 21 22 23 24 25 -26 -27 -28 -29 30 31 32 -33 -34 -35 36 37 -38 0
1 2 -3 -4 -5 6 7 -8 9 -10 -11 -12 13 14 15 16 17 18 -19 -20 -21 -22 23 24 25 26 -27 28 29 -30 31 32 33 -34 -35 36 37 -38 0
1 2 -3 -4 5 -6 7 8 -9 -10 11 12 -13 14 15 -16 -17 18 -19 20 -21 22 23 -24 25 -26 -27 28 29 30 31 32 -33 -34 -35 36 37 -38 0
1 2 -3 -4 5 -6 7 8 9 10 11 12 -13 -14 -15 -16 -17 -18 19 20 21 -22 23 -24 -25 26 27 28 29 -30 -31 -32 33 34 35 -36 -37 38 0
1 2 -3 -4 -5 6 7 -8 9 -10 -11 12 13 14 -15 16 17 -18 -19 20 21 -22 23 24 -25 -26 -27 28 29 30 31 32 -33 -34 -35 36 37 -38 0
1 -2 -3 4 5 -6 7 8 9 10 11 -12 -13 -14 -15 -16 17 -18 19 20 21 22 -23 24 -25 26 -27 28 -29 30 -31 32 33 -34 -35 36 37 -38 0
1 2 -3 -4 -5 6 7 -8 9 -10 11 -12 13 14 15 -16 17 18 -19 -20 21 -22 23 24 25 -26 27 -28 29 -30 31 32 33 -34 -35 36 37 -38 0
1 2 -3 -4 -5 6 7 8 -9 10 -11 12 -13 14 15 -16 17 18 -19 20 -21 22 23 -24 25 -26 -27 -28 29 30 31 32 -33 -34 -35 36 37 -38 0
1 2 -3 -4 -5 6 7 -8 9 -10 -11 12 13 14 -15 16 17 -18 -19 20 21 -22 23 24 -25 -26 -27 28 29 30 31 -32 33 -34 35 36 -37 38 0
1 2 -3 -4 -5 6 7 8 -9 10 -11 12 -13 14 15 -16 17 18 -19 20 -21 22 -23 -24 25 -26 27 28 29 -30 31 -32 -33 34 -35 36 37 -38 0
1 2 -3 -4 -5 6 7 -8 9 -10 -11 -12 13 -14 15 16 17 18 -19 20 21 -22 23 24 -25 -26 -27 28 29 30 31 32 33 -34 -35 36 37 -38 0
1 2 -3 -4 -5 6 7 -8 9 -10 -11 12 13 14 15 -16 17 18 -19 -20 -21 22 23 24 25 26 -27 -28 29 -30 31 32 33 -34 -35 36 37 -38 0
1 2 -3 -4 -5 6 7 -8 9 -10 -11 12 13 14 -15 16 17 -18 -19 20 21 -22 -23 24 -25 -26 27 28 29 30 -31 -32 33 -34 35 36 37 38 0
1 2 -3 -4 -5 6 7 -8 9 10 -11 12 13 14 -15 -16 17 18 -19 -20 21 22 23 24 25 -26 -27 -28 -29 30 31 32 -33 -34 -35 36 37 -38 0
1 2 -3 -4 -5 6 7 -8 9 -10 -11 12 13 14 15 16 17 18 -19 -20 -21 -22 -23 24 25 26 27 28 -29 -30 31 -32 -33 34 -35 36 37 -38 0
1 2 -3 -4 -5 6 7 8 -9 10 -11 -12 -13 14 15 -16 17 18 -19 20 -21 22 23 -24 25 -26 -27 28 29 30 31 32 -33 -34 -35 36 37 -38 0
1 2 -3 -4 5 -6 7 8 9 10 11 12 -13 -14 -15 -16 -17 -18 19 20 21 22 23 -24 -25 -26 -27 -28 29 30 31 32 33 -34 -35 36 37 -38 0
1 2 -3 -4 -5 6 7 -8 9 -10 -11 12 13 -14 15 16 17 18 -19 20 21 -22 -23 24 -25 -26 -27 28 29 30 31 32 33 -34 -35 36 37 -38 0
1 2 -3 -4 -5 6 7 8 -9 10 -11 -12 13 -14 15 16 17 18 19 -20 -21 22 -23 24 25 -26 27 -28 29 -30 31 32 33 -34 -35 36 37 -38 0
1 2 -3 -4 -5 6 7 -8 9 -10 -11 12 13 14 15 16 17 18 -19 -20 -21 -22 -23 24 25 26 27 28 29 -30 -31 -32 33 34 35 -36 -37 38 0
1 2 -3 -4 -5 6 7 -8 9 -10 -11 12 13 14 15 16 17 18 -19 -20 21 -22 -23 24 -25 26 -27 28 29 30 -31 32 33 -34 -35 36 37 -38 0
1 2 -3 -4 -5 6 7 -8 9 -10 11 -12 13 14 -15 16 -17 -18 -19 -20 -21 22 23 24 25 26 -27 -28 29 -30 31 32 33 -34 35 36 37 38 0
1 2 -3 -4 -5 6 7 -8 9 10 -11 12 13 -14 -15 -16 17 18 -19 20 21 22 23 24 -25 -26 -27 -28 29 30 31 32 33 -34 -35 36 37 -38 0
1 2 -3 -4 -5 6 7 -8 9 -10 11 -12 13 14 -15 16 -17 -18 -19 -20 21 22 23 24 25 -26 -27 -28 -29 30 31 32 33 -34 35 -36 37 38 0
1 2 -3 -4 -5 6 7 -8 9 -10 -11 12 13 14 -15 16 17 -18 -19 20 21 -22 23 24 -25 -26 27 28 29 30 -31 -32 -33 34 35 -36 -37 38 0
1 2 -3 -4 -5 6 7 -8 9 -10 11 -12 13 14 -15 16 -17 -18 -19 -20 -21 22 23 24 25 26 27 -28 29 -30 -31 32 33 -34 35 36 37 38 0
1 2 -3 -4 -5 6 7 -8 9 10 -11 12 13 14 -15 -16 17 -18 -19 -20 21 22 -23 24 25 -26 27 28 29 -30 31 -32 -33 34 -35 36 37 -38 0
1 2 -3 -4 5 -6 7 8 9 10 11 -12 -13 -14 -15 -16 17 -18 19 20 21 -22 23 -24 -25 26 27 28 29 -30 -31 -32 33 34 35 -36 -37 38 0
1 2 -3 -4 -5 6 7 -8 9 10 -11 12 13 -14 -15 16 17 18 -19 20 21 -22 -23 24 -25 26 -27 28 29 30 -31 32 33 -34 -35 36 37 -38 0
1 2 -3 -4 -5 6 7 -8 9 10 -11 -12 13 -14 -15 16 17 18 -19 20 21 -22 -23 24 -25 26 -27 28 -29 30 -31 32 -33 34 35 36 37 -38 0
1 2 -3 -4 -5 6 7 -8 9 -10 -11 -12 13 14 15 16 17 -18 -19 -20 -21 22 -23 24 25 -26 27 -28 29 -30 31 32 -33 34 35 36 37 -38 0
1 2 -3 -4 -5 6 7 8 -9 10 -11 12 -13 14 15 -16 17 18 -19 20 -21 22 -23 24 -25 26 -27 28 29 30 -31 32 33 -34 -35 36 37 -38 0
1 2 -3 -4 5 -6 7 8 9 10 11 -12 -13 -14 -15 -16 17 -18 19 20 21 22 -23 24 -25 26 -27 28 -29 30 -31 32 33 -34 -35 36 37 -38 0
1 2 -3 -4 -5 6 7 -8 9 -10 11 -12 13 14 -15 16 -17 -18 -19 20 -21 22 23 -24 25 -26 27 28 29 -30 -31 32 33 34 35 -36 -37 38 0
1 2 -3 -4 -5 6 7 -8 9 10 -11 12 13 -14 -15 16 17 18 -19 20 21 -22 -23 24 -25 26 -27 28 -29 30 31 32 -33 -34 -35 36 37 -38 0
1 2 -3 -4 -5 6 7 -8 9 -10 11 -12 13 14 -15 16 -17 18 -19 -20 -21 22 23 24 25 26 -27 -28 29 -30 31 32 33 -34 35 -36 37 38 0
1 2 -3 -4 -5 6 7 8 9 -10 -11 12 -13 -14 15 16 17 -18 19 20 21 -22 -23 -24 -25 -26 -27 28 29 30 31 32 33 -34 -35 36 37 -38 0
1 2 -3 -4 -5 6 7 -8 9 -10 -11 12 13 14 15 16 17 18 -19 -20 -21 -22 -23 24 25 26 27 28 -29 -30 -31 -32 33 34 35 36 -37 38 0
1 2 -3 -4 -5 6 7 -8 9 -10 11 -12 13 14 -15 16 -17 -18 -19 20 -21 22 23 24 25 -26 -27 -28 -29 30 31 32 33 -34 35 -36 37 38 0
1 2 -3 -4 -5 6 7 -8 9 10 -11 12 13 -14 15 -16 17 18 -19 -20 21 22 -23 24 25 -26 -27 28 -29 30 31 -32 -33 34 35 -36 -37 38 0
1 -2 -3 4 5 -6 7 8 -9 -10 11 12 -13 14 15 -16 -17 18 -19 20 -21 22 23 24 -25 26 -27 28 29 30 -31 32 33 -34 -35 36 37 -38 0
1 2 -3 -4 -5 6 7 -8 9 -10 -11 -12 13 14 15 16 17 -18 -19 -20 -21 -22 -23 24 25 26 27 28 29 -30 -31 32 33 -34 35 36 37 38 0
1 -2 -3 4 5 -6 7 8 -9 -10 11 12 -13 14 15 -16 -17 18 -19 20 -21 22 23 -24 25 -26 -27 -28 -29 30 31 32 33 -34 35 -36 37 38 0
1 2 -3 -4 -5 6 7 8 -9 10 -11 12 -13 14 15 -16 -17 18 -19 20 -21 22 23 -24 25 -26 -27 -28 29 30 31 32 -33 -34 35 -36 37 38 0
1 2 -3 -4 -5 6 7 -8 9 -10 -11 12 13 -14 15 16 17 18 -19 20 21 -22 -23 24 -25 -26 27 28 29 30 -31 32 33 -34 -35 36 37 -38 0
1 2 -3 -4 -5 6 7 8 -9 10 -11 12 -13 14 15 -16 -17 18 -19 20 -21 22 23 -24 25 -26 -27 28 29 30 31 32 -33 -34 -35 36 37 -38 0
1 2 -3 -4 5 -6 7 8 -9 -10 11 12 -13 14 15 -16 -17 18 -19 20 -21 22 23 24 -25 26 -27 28 29 30 -31 32 33 -34 -35 36 37 -38 0
1 2 -3 -4 -5 6 7 -8 9 -10 11 -12 13 14 -15 16 -17 -18 -19 20 -21 22 23 -24 25 -26 27 -28 29 -30 31 -32 33 34 35 36 37 -38 0
1 2 -3 -4 -5 6 7 -8 9 -10 -11 12 13 14 15 16 17 -18 -19 -20 -21 -22 -23 24 25 26 27 28 29 -30 -31 -32 33 34 35 36 -37 38 0
1 2 -3 -4 -5 6 7 -8 9 -10 -11 12 13 14 15 -16 17 -18 -19 -20 21 22 -23 24 25 -26 -27 28 -29 30 31 -32 33 -34 35 -36 37 38 0
1 2 -3 -4 -5 6 7 8 9 -10 -11 12 -13 -14 15 16 17 -18 19 20 21 -22 -23 -24 -25 -26 27 28 29 30 -31 32 33 -34 -35 36 37 -38 0
1 -2 -3 4 5 -6 7 8 9 10 11 -12 -13 -14 -15 -16 17 -18 19 20 21 -22 23 -24 -25 26 27 28 29 -30 -31 -32 33 34 35 -36 -37 38 0
1 2 -3 -4 -5 6 7 -8 9 -10 11 -12 13 14 -15 16 -17 -18 -19 20 -21 22 23 24 -25 26 -27 -28 29 30 -31 32 33 -34 35 36 37 38 0
1 2 -3 -4 -5 6 7 8 -9 10 -11 12 -13 14 15 -16 -17 18 -19 20 -21 22 23 24 -25 26 -27 28 29 30 -31 32 33 -34 -35 36 37 -38 0
1 -2 -3 4 5 -6 7 8 -9 -10 11 12 -13 14 15 -16 -17 18 -19 20 -21 22 23 -24 25 -26 -27 28 29 30 31 32 -33 -34 -35 36 37 -38 0
1 2 -3 -4 -5 6 7 8 9 -10 -11 -12 -13 -14 15 16 17 -18 19 20 21 -22 23 -24 -25 -26 -27 28 29 30 31 32 33 -34 -35 36 37 -38 0
1 2 -3 -4 -5 6 7 -8 9 10 -11 12 13 -14 15 -16 17 18 -19 -20 21 -22 -23 24 25 26 27 28 -29 -30 -31 -32 33 34 35 36 -37 38 0
1 2 -3 -4 -5 6 7 -8 9 10 -11 12 13 -14 15 -16 17 18 -19 20 21 -22 -23 24 -25 -26 27 28 29 30 -31 32 33 -34 -35 36 37 -38 0
1 2 -3 -4 -5 6 7 8 -9 10 -11 -12 -13 14 15 -16 17 18 -19 20 -21 22 23 -24 25 -26 -27 -28 29 30 31 32 -33 -34 35 -36 37 38 0
1 2 -3 -4 -5 6 7 -8 9 10 -11 12 13 14 -15 -16 17 -18 -19 -20 21 22 -23 24 25 -26 27 28 29 -30 -31 -32 33 34 35 36 -37 38 0
1 2 -3 -4 -5 6 7 -8 9 10 -11 12 13 -14 -15 16 17 18 -19 20 21 -22 -23 24 -25 26 27 28 29 -30 -31 -32 33 34 35 -36 -37 38 0
1 2 -3 -4 -5 6 7 8 9 -10 11 -12 -13 -14 -15 16 -17 -18 19 20 21 22 23 -24 -25 -26 -27 -28 29 30 -31 32 33 34 35 36 37 -38 0
1 2 -3 -4 -5 6 7 -8 9 10 -11 12 13 -14 -15 16 17 18 -19 20 21 -22 -23 24 -25 -26 27 28 29 30 -31 32 33 -34 -35 36 37 -38 0
1 2 -3 -4 -5 6 7 8 9 -10 -11 12 -13 -14 15 16 17 -18 19 20 -21 -22 -23 -24 25 26 27 28 -29 -30 -31 -32 33 34 35 36 -37 38 0
1 -2 -3 4 5 -6 7 8 9 10 11 -12 -13 -14 -15 -16 17 -18 19 20 21 22 -23 24 -25 26 -27 28 -29 30 -31 -32 33 34 35 -36 -37 38 0
1 2 -3 -4 -5 6 7 -8 9 10 -11 -12 13 -14 -15 16 17 18 -19 20 21 -22 23 24 -25 -26 -27 28 29 30 31 32 33 -34 -35 36 37 -38 0
1 2 -3 -4 -5 6 7 8 -9 10 -11 -12 -13 14 15 -16 17 18 -19 20 -21 22 23 -24 25 -26 -27 28 29 30 -31 32 -33 34 35 -36 -37 38 0
1 2 -3 -4 -5 6 7 -8 9 10 -11 12 13 14 -15 -16 17 18 -19 -20 21 22 -23 24 -25 26 -27 28 29 30 -31 32 33 -34 -35 36 37 -38 0
1 2 -3 -4 -5 6 7 8 -9 10 -11 12 -13 14 15 -16 17 -18 19 20 21 -22 -23 -24 -25 -26 27 28 29 30 -31 32 33 -34 -35 36 37 -38 0
1 2 -3 -4 -5 6 7 -8 9 10 -11 12 13 14 -15 -16 17 18 -19 -20 21 22 -23 24 25 -26 27 28 29 -30 -31 -32 33 34 35 -36 -37 38 0
1 2 -3 -4 5 -6 7 8 -9 -10 11 12 -13 14 15 -16 -17 18 -19 20 -21 22 23 -24 25 -26 -27 -28 29 30 31 32 -33 -34 35 -36 37 38 0
1 2 -3 -4 -5 6 7 -8 9 10 -11 12 13 -14 15 -16 17 18 -19 20 -21 22 -23 24 25 -26 27 28 29 -30 -31 -32 33 34 35 -36 -37 38 0
1 2 -3 -4 -5 6 7 8 -9 10 -11 -12 -13 14 15 -16 17 18 -19 20 -21 22 23 -24 25 -26 -27 -28 -29 30 31 32 33 -34 35 -36 37 38 0
1 2 -3 -4 -5 6 7 -8 9 10 -11 -12 13 -14 -15 16 17 18 -19 20 21 -22 -23 24 -25 26 27 28 -29 30 -31 -32 33 -34 35 36 37 38 0
1 2 -3 -4 -5 6 7 -8 9 -10 -11 12 13 14 -15 16 17 -18 -19 20 21 -22 -23 24 -25 -26 27 28 29 30 -31 32 33 -34 35 36 -37 38 0
1 2 -3 -4 5 -6 7 8 -9 -10 11 12 -13 14 15 -16 -17 18 -19 20 -21 22 23 -24 25 -26 -27 28 29 30 -31 32 -33 34 35 -36 -37 38 0
1 2 -3 -4 -5 6 7 -8 9 10 -11 12 13 14 -15 -16 17 18 -19 -20 21 22 -23 24 25 -26 -27 28 -29 30 31 -32 -33 34 35 -36 -37 38 0
1 2 -3 -4 -5 6 7 -8 9 -10 -11 12 13 14 -15 16 17 -18 -19 20 21 -22 -23 24 -25 -26 27 28 29 30 -31 32 -33 34 35 -36 -37 38 0
1 -2 -3 4 5 -6 7 8 -9 -10 11 12 -13 14 15 -16 -17 18 -19 20 -21 22 23 -24 25 -26 -27 -28 29 30 31 32 -33 -34 35 -36 37 38 0
1 2 -3 -4 5 -6 7 8 9 10 11 -12 -13 -14 -15 -16 17 -18 19 20 21 22 -23 24 -25 26 -27 28 -29 30 -31 -32 33 34 35 -36 -37 38 0
1 -2 -3 4 5 -6 7 8 -9 -10 11 12 -13 14 15 -16 -17 18 -19 20 -21 22 23 -24 25 -26 -27 28 29 30 -31 32 -33 34 35 -36 -37 38 0
1 2 -3 -4 -5 6 7 -8 9 10 -11 12 13 -14 15 -16 17 18 -19 -20 21 -22 -23 24 25 26 27 28 -29 -30 31 -32 -33 34 -35 36 37 -38 0
1 2 -3 -4 -5 6 7 -8 9 10 -11 12 13 14 -15 -16 17 -18 -19 -20 21 22 -23 24 25 -26 -27 28 -29 30 31 -32 33 -34 35 -36 37 38 0
1 2 -3 -4 -5 6 7 8 -9 10 -11 12 -13 14 15 -16 -17 18 -19 20 -21 22 23 -24 25 -26 -27 -28 -29 30 31 32 33 -34 35 -36 37 38 0
1 2 -3 -4 5 -6 7 8 -9 -10 11 12 -13 14 15 -16 -17 18 -19 20 -21 22 23 -24 25 -26 -27 -28 -29 30 31 32 33 -34 35 -36 37 38 0
1 2 -3 -4 -5 6 7 8 -9 10 -11 12 -13 14 15 -16 -17 18 -19 20 -21 22 23 -24 25 -26 -27 28 29 30 -31 32 -33 34 35 -36 -37 38 0
1 2 -3 -4 -5 6 7 8 -9 10 -11 12 -13 14 15 -16 17 18 -19 20 -21 22 -23 24 25 -26 27 28 29 -30 -31 -32 33 34 35 -36 -37 38 0
1 2 -3 -4 -5 6 7 -8 9 -10 -11 12 13 14 15 -16 17 18 -19 -20 21 22 -23 24 25 -26 -27 28 -29 30 31 -32 -33 34 35 -36 -37 38 0
1 2 -3 -4 -5 6 7 8 -9 10 -11 12 -13 14 15 -16 17 18 -19 20 -21 22 -23 -24 25 -26 27 28 29 -30 -31 -32 33 34 35 36 -37 38 0
1 2 -3 -4 -5 6 7 -8 9 10 -11 12 13 -14 -15 -16 17 18 -19 20 21 22 23 24 -25 26 -27 -28 -29 30 -31 32 33 -34 35 36 -37 38 0
1 2 -3 -4 -5 6 7 8 9 -10 -11 -12 -13 -14 15 16 17 -18 19 20 21 -22 23 -24 -25 -26 -27 28 29 30 31 32 -33 -34 35 -36 37 38 0
1 2 -3 -4 -5 6 7 -8 9 -10 -11 12 13 14 -15 16 17 -18 -19 20 21 -22 23 24 -25 -26 -27 28 29 30 31 32 33 -34 -35 36 37 -38 0
1 2 -3 -4 -5 6 7 -8 9 -10 -11 12 13 14 15 16 17 18 -19 -20 -21 -22 -23 24 25 26 27 28 29 -30 -31 -32 33 34 35 36 -37 38 0
1 2 -3 -4 -5 6 7 -8 9 -10 -11 12 13 14 -15 16 17 -18 -19 20 -21 22 23 24 25 -26 -27 28 -29 30 31 32 -33 -34 -35 36 37 -38 0
1 2 -3 -4 -5 6 7 -8 9 -10 -11 12 13 14 -15 16 17 -18 -19 20 -21 22 23 -24 25 -26 -27 28 29 30 31 32 -33 -34 -35 36 37 -38 0
1 2 -3 -4 -5 6 7 -8 9 -10 -11 12 13 -14 15 16 17 18 -19 20 21 -22 -23 24 -25 -26 -27 28 29 30 31 32 -33 -34 35 -36 37 38 0
1 2 -3 -4 -5 6 7 8 9 -10 11 -12 13 14 -15 16 -17 18 19 -20 -21 22 23 -24 25 26 -27 -28 -29 30 31 32 -33 -34 -35 36 37 -38 0
1 2 -3 -4 -5 6 7 -8 9 10 -11 -12 13 -14 15 -16 17 18 -19 -20 21 -22 23 24 25 26 27 -28 29 30 31 32 -33 -34 -35 36 37 -38 0
1 2 -3 -4 -5 6 7 -8 9 -10 -11 -12 13 14 15 16 17 -18 -19 -20 -21 22 -23 24 25 -26 27 -28 29 -30 31 32 -33 34 35 36 37 38 0
1 2 -3 -4 -5 6 7 8 9 -10 -11 12 -13 -14 15 16 17 -18 19 20 -21 -22 -23 24 -25 26 27 28 -29 30 -31 -32 33 -34 35 36 37 38 0
1 2 -3 -4 -5 6 7 -8 9 -10 -11 -12 13 14 15 16 17 18 -19 -20 -21 -22 -23 24 25 26 27 28 29 -30 -31 32 33 -34 35 36 37 38 0
1 2 -3 -4 -5 6 7 8 9 -10 11 -12 13 14 -15 16 -17 -18 -19 -20 -21 22 23 24 25 26 -27 -28 29 -30 31 32 33 -34 35 -36 37 38 0
1 2 -3 -4 -5 6 7 8 9 -10 11 -12 13 14 -15 16 -17 18 19 -20 -21 22 23 24 25 -26 27 -28 29 -30 31 -32 -33 34 35 -36 -37 38 0
1 2 -3 -4 5 -6 7 8 -9 -10 11 12 -13 14 15 -16 -17 18 -19 20 -21 22 23 -24 25 -26 27 -28 29 -30 31 -32 33 34 35 36 37 -38 0
1 -2 -3 4 5 -6 7 8 -9 -10 11 12 -13 14 15 -16 -17 18 -19 20 -21 22 23 -24 25 -26 27 -28 29 -30 31 -32 33 34 35 36 37 -38 0
1 2 -3 -4 -5 6 7 -8 9 10 -11 12 13 -14 15 -16 -17 -18 -19 20 -21 22 23 24 25 -26 27 -28 -29 30 -31 32 33 -34 35 36 37 38 0
1 2 -3 -4 -5 6 7 -8 9 -10 -11 12 13 -14 15 16 17 18 -19 20 21 -22 -23 24 -25 -26 27 28 29 30 -31 32 -33 34 35 -36 -37 38 0
1 2 -3 -4 -5 6 7 -8 9 10 -11 12 13 -14 15 -16 17 18 -19 20 -21 22 -23 24 25 -26 27 28 29 -30 31 -32 -33 34 -35 36 37 -38 0
1 2 -3 -4 -5 6 7 -8 9 -10 -11 12 13 14 15 16 17 -18 -19 20 -21 -22 23 -24 25 -26 -27 28 29 30 31 32 -33 -34 -35 36 37 -38 0
1 2 -3 -4 -5 6 7 8 -9 10 -11 -12 13 -14 15 16 17 18 19 -20 -21 -22 -23 24 25 26 27 28 29 30 -31 -32 -33 34 35 -36 -37 38 0
1 -2 -3 4 5 -6 7 8 -9 -10 11 -12 -13 14 15 -16 17 18 -19 20 21 -22 23 24 -25 -26 27 -28 29 30 -31 32 33 -34 35 36 37 38 0
1 -2 -3 4 5 -6 7 8 -9 -10 11 -12 -13 14 15 -16 17 18 -19 20 21 -22 23 24 -25 -26 27 28 29 30 -31 -32 33 -34 35 36 37 38 0
1 2 -3 -4 -5 6 7 -8 9 -10 -11 -12 13 14 15 16 17 -18 -19 20 -21 -22 23 -24 25 -26 -27 28 29 30 31 32 -33 -34 35 -36 37 38 0
1 2 -3 -4 -5 6 7 -8 9 10 -11 -12 13 -14 -15 16 17 18 -19 20 21 -22 -23 24 -25 26 -27 28 -29 30 31 32 33 -34 35 -36 37 38 0
1 -2 -3 4 5 -6 7 8 -9 -10 11 12 -13 14 15 -16 -17 18 -19 20 -21 22 23 24 -25 26 -27 -28 29 30 -31 32 33 -34 35 36 37 38 0
1 2 -3 -4 5 -6 7 8 -9 -10 11 12 -13 14 15 -16 -17 18 -19 20 -21 22 23 -24 25 -26 27 -28 -29 30 -31 32 33 -34 35 36 37 38 0
1 2 -3 -4 -5 6 7 -8 9 -10 11 -12 13 14 -15 16 -17 18 -19 -20 21 22 23 24 25 -26 -27 -28 -29 30 31 32 33 -34 35 -36 37 38 0
1 2 -3 -4 -5 6 7 -8 9 10 -11 -12 13 -14 -15 16 17 18 -19 20 21 -22 -23 24 -25 26 -27 28 29 -30 31 32 33 34 35 36 -37 38 0
1 2 -3 -4 -5 6 7 -8 9 -10 -11 -12 13 14 15 16 17 -18 -19 -20 -21 22 -23 24 25 -26 27 -28 -29 30 31 32 33 34 35 36 -37 38 0
1 2 -3 -4 -5 6 7 8 9 -10 -11 -12 -13 -14 15 16 17 -18 19 20 -21 -22 -23 24 -25 26 27 28 -29 30 31 -32 33 34 -35 36 37 38 0
1 2 -3 -4 -5 6 7 8 9 -10 -11 -12 -13 -14 15 16 17 -18 19 20 21 -22 -23 -24 -25 -26 27 28 29 30 -31 32 33 -34 35 36 37 38 0
1 2 -3 -4 -5 6 7 -8 9 10 -11 -12 13 -14 -15 16 17 18 -19 20 21 22 -23 24 -25 -26 -27 28 29 30 -31 32 -33 34 35 36 37 -38 0
1 2 -3 -4 -5 6 7 8 -9 10 -11 -12 -13 14 15 -16 17 -18 19 20 21 -22 23 -24 -25 -26 27 -28 29 30 -31 32 33 -34 35 36 37 38 0
1 2 -3 -4 -5 6 7 -8 9 10 -11 12 13 -14 15 -16 17 18 -19 -20 21 22 -23 24 25 -26 -27 28 -29 30 31 -32 33 -34 35 -36 37 38 0
1 2 -3 -4 -5 6 7 -8 9 10 -11 -12 13 -14 15 -16 17 18 -19 -20 21 22 23 24 25 -26 27 28 -29 30 -31 32 33 -34 -35 36 37 -38 0
1 2 -3 -4 -5 6 7 -8 9 -10 -11 -12 13 -14 15 16 17 18 -19 20 21 -22 -23 24 -25 -26 27 28 29 30 -31 32 -33 34 35 36 37 -38 0
1 2 -3 -4 -5 6 7 -8 9 -10 -11 12 13 14 -15 16 17 -18 -19 20 -21 22 23 24 25 -26 27 -28 -29 30 -31 32 33 -34 35 36 -37 38 0
1 2 -3 -4 -5 6 7 8 9 -10 -11 12 -13 -14 15 16 17 -18 19 20 21 -22 -23 -24 -25 -26 27 28 29 30 -31 32 -33 34 35 -36 -37 38 0
1 2 -3 -4 -5 6 7 8 9 -10 11 -12 -13 -14 -15 16 -17 -18 19 20 21 22 23 24 -25 26 -27 -28 -29 30 -31 32 -33 34 35 36 37 -38 0
1 2 -3 -4 -5 6 7 -8 9 -10 11 -12 13 14 -15 16 -17 18 -19 -20 -21 22 23 24 25 26 -27 -28 29 -30 31 32 33 -34 35 36 37 38 0
1 2 -3 -4 -5 6 7 8 9 -10 -11 -12 -13 -14 15 16 17 -18 19 20 21 -22 -23 -24 -25 26 -27 28 29 30 -31 32 -33 34 35 36 37 -38 0
1 2 -3 -4 -5 6 7 -8 9 -10 -11 -12 13 -14 15 16 17 18 -19 20 21 -22 -23 24 -25 -26 27 28 29 30 -31 32 33 -34 35 36 37 38 0
1 -2 -3 4 5 -6 7 8 -9 -10 11 12 -13 14 15 -16 -17 -18 19 20 -21 22 23 -24 -25 26 -27 28 29 30 -31 32 -33 34 35 -36 -37 38 0
1 2 -3 -4 -5 6 7 -8 9 -10 -11 12 13 14 15 -16 17 -18 -19 20 -21 22 23 -24 25 -26 -27 -28 29 30 31 32 -33 -34 35 -36 37 38 0
1 2 -3 -4 -5 6 7 -8 9 -10 -11 12 13 14 15 -16 17 18 -19 -20 21 22 -23 24 25 -26 -27 28 -29 30 31 -32 33 -34 35 -36 37 38 0
1 2 -3 -4 -5 6 7 -8 9 -10 -11 -12 13 -14 15 16 17 18 -19 20 21 -22 23 24 -25 -26 -27 28 29 30 31 32 -33 -34 35 -36 37 38 0
1 2 -3 -4 5 -6 7 8 9 10 11 12 -13 -14 -15 -16 -17 -18 19 20 21 22 23 24 -25 26 -27 -28 -29 30 -31 32 33 -34 35 36 -37 38 0
1 2 -3 -4 -5 6 7 8 9 -10 -11 12 -13 -14 15 16 17 -18 19 20 21 -22 -23 -24 -25 -26 -27 28 29 30 31 32 -33 -34 35 -36 37 38 0
1 2 -3 -4 -5 6 7 -8 9 -10 -11 -12 13 14 15 16 17 18 -19 -20 -21 22 -23 24 25 -26 27 -28 29 -30 31 32 -33 34 35 36 37 -38 0
1 2 -3 -4 -5 6 7 -8 9 10 -11 -12 13 -14 -15 16 17 18 -19 20 21 -22 23 24 -25 -26 -27 28 29 30 31 32 -33 -34 35 -36 37 38 0
1 2 -3 -4 -5 6 7 8 -9 10 -11 -12 -13 14 15 -16 17 18 -19 20 -21 22 23 -24 25 26 -27 -28 -29 30 -31 32 -33 34 35 36 37 -38 0
1 2 -3 -4 -5 6 7 -8 9 -10 11 -12 13 14 -15 16 -17 18 -19 -20 21 22 23 24 -25 26 -27 -28 29 30 -31 32 33 -34 35 36 37 38 0
1 2 -3 -4 -5 6 7 -8 9 -10 -11 12 13 14 15 16 17 -18 -19 -20 -21 -22 23 24 25 26 -27 28 29 -30 31 32 33 -34 -35 36 37 -38 0
1 2 -3 -4 -5 6 7 -8 9 -10 11 -12 13 14 -15 16 -17 18 -19 -20 -21 22 23 24 25 26 27 -28 29 -30 -31 32 33 -34 35 36 37 38 0
1 2 -3 -4 -5 6 7 -8 9 10 -11 12 13 14 -15 -16 17 -18 -19 -20 21 22 -23 24 25 -26 27 28 -29 30 -31 -32 33 -34 35 36 37 38 0
1 2 -3 -4 -5 6 7 8 -9 10 -11 12 -13 14 15 -16 17 18 -19 20 -21 22 -23 24 25 -26 27 28 29 -30 -31 -32 33 34 35 36 -37 38 0
1 2 -3 -4 -5 6 7 8 9 -10 11 -12 -13 -14 -15 16 -17 -18 19 20 21 22 23 -24 -25 -26 -27 -28 29 30 -31 32 33 34 35 36 37 38 0
1 2 -3 -4 -5 6 7 -8 9 10 -11 -12 13 -14 -15 16 17 18 -19 20 21 22 -23 24 -25 -26 -27 28 29 30 -31 32 33 34 -35 36 37 38 0
1 2 -3 -4 -5 6 7 -8 9 10 -11 -12 13 -14 -15 16 17 18 -19 20 21 -22 -23 24 -25 -26 27 28 29 30 -31 32 -33 34 35 36 37 -38 0
1 2 -3 -4 -5 6 7 -8 9 -10 11 -12 13 14 -15 16 -17 -18 -19 20 -21 22 23 24 25 -26 27 -28 -29 30 -31 32 33 -34 35 36 37 38 0
1 -2 -3 4 5 -6 7 8 9 10 11 -12 -13 -14 -15 -16 17 -18 19 20 21 -22 23 -24 -25 26 27 28 29 -30 -31 -32 33 34 35 36 -37 38 0
1 2 -3 -4 -5 6 7 -8 9 -10 11 -12 13 14 -15 16 -17 -18 -19 20 -21 22 23 -24 25 -26 27 -28 29 -30 31 -32 33 34 35 36 37 38 0
1 2 -3 -4 -5 6 7 -8 9 -10 -11 12 13 14 15 -16 17 -18 -19 -20 -21 22 23 24 25 26 -27 -28 29 -30 31 32 33 -34 35 -36 37 38 0
1 2 -3 -4 -5 6 7 8 9 -10 11 -12 -13 -14 15 -16 17 -18 19 20 21 -22 23 -24 -25 -26 27 28 29 30 -31 -32 33 -34 35 36 37 38 0
1 2 -3 -4 -5 6 7 8 9 -10 -11 -12 -13 -14 15 16 17 -18 19 20 21 -22 -23 -24 -25 26 -27 28 29 -30 31 32 33 34 35 36 -37 38 0
1 2 -3 -4 -5 6 7 8 9 -10 11 -12 -13 -14 -15 16 -17 -18 19 20 21 22 23 24 -25 26 -27 -28 -29 30 -31 32 33 -34 35 36 37 38 0
1 2 -3 -4 -5 6 7 -8 9 -10 -11 -12 13 14 15 16 17 18 -19 -20 21 -22 -23 24 -25 26 -27 28 29 30 31 -32 33 34 35 36 -37 38 0
1 2 -3 -4 -5 6 7 -8 9 10 -11 -12 13 -14 15 -16 17 18 -19 -20 21 22 23 24 25 -26 -27 -28 -29 30 31 32 33 -34 35 -36 37 38 0
1 2 -3 -4 -5 6 7 -8 9 10 -11 12 13 -14 -15 16 17 18 -19 20 21 -22 -23 24 -25 -26 27 28 29 30 -31 32 -33 34 35 -36 -37 38 0
1 2 -3 -4 -5 6 7 -8 9 -10 -11 12 13 14 15 -16 17 -18 -19 20 -21 22 23 -24 25 -26 -27 28 29 30 31 32 -33 -34 -35 36 37 -38 0
1 2 -3 -4 -5 6 7 8 9 -10 -11 12 -13 -14 15 16 17 -18 19 20 21 -22 -23 -24 -25 -26 27 28 29 30 -31 -32 33 -34 35 36 37 38 0
1 2 -3 -4 -5 6 7 -8 9 10 -11 12 13 -14 -15 16 17 18 -19 20 21 -22 -23 24 -25 26 27 28 29 -30 -31 -32 33 34 35 36 -37 38 0
1 2 -3 -4 -5 6 7 -8 9 10 -11 12 13 -14 -15 -16 17 18 -19 20 21 22 23 24 -25 -26 -27 -28 29 30 31 32 -33 -34 35 -36 37 38 0
1 2 -3 -4 -5 6 7 -8 9 10 -11 12 13 14 -15 -16 17 18 -19 -20 21 22 23 24 -25 26 -27 -28 29 30 -31 32 33 -34 35 36 -37 38 0
1 2 -3 -4 -5 6 7 -8 9 10 -11 12 13 14 -15 -16 17 18 -19 -20 21 22 -23 24 25 -26 -27 28 -29 30 31 -32 33 -34 35 -36 37 38 0
1 2 -3 -4 -5 6 7 8 -9 10 -11 12 -13 14 15 -16 -17 18 -19 20 -21 22 23 -24 25 -26 27 -28 29 -30 31 -32 33 34 35 36 37 -38 0
1 2 -3 -4 5 -6 7 8 9 10 11 12 -13 -14 -15 -16 -17 -18 19 20 21 -22 23 -24 -25 26 27 28 29 -30 -31 -32 33 34 35 36 -37 38 0
1 -2 -3 4 5 -6 7 8 -9 -10 11 12 -13 14 15 -16 -17 18 -19 20 -21 22 23 -24 25 -26 27 -28 -29 30 -31 32 33 -34 35 36 37 38 0
1 -2 -3 4 5 -6 7 8 -9 -10 11 12 -13 14 15 -16 -17 18 -19 20 21 -22 23 24 -25 -26 27 28 29 30 -31 -32 33 -34 35 36 37 38 0
1 -2 -3 4 5 -6 7 8 -9 -10 11 12 -13 14 15 -16 -17 -18 19 20 -21 22 23 -24 -25 26 -27 -28 29 30 -31 32 -33 34 35 36 37 -38 0
1 2 -3 -4 -5 6 7 -8 9 10 -11 12 13 -14 -15 -16 17 18 -19 20 21 22 -23 24 -25 -26 -27 28 29 30 -31 32 33 34 -35 36 37 38 0
1 2 -3 -4 5 -6 7 8 9 10 11 12 -13 -14 -15 -16 -17 -18 19 20 21 22 23 -24 -25 -26 -27 -28 29 30 31 32 -33 -34 35 -36 37 38 0
1 -2 -3 4 5 -6 7 8 9 10 11 -12 -13 -14 -15 -16 17 -18 19 20 21 22 -23 -24 -25 -26 27 28 29 30 -31 -32 33 -34 35 36 37 38 0
1 2 -3 -4 -5 6 7 8 -9 10 -11 12 13 -14 15 -16 -17 -18 -19 20 -21 22 23 24 25 -26 27 -28 -29 30 -31 32 33 -34 35 36 37 38 0
1 2 -3 -4 5 -6 7 8 -9 -10 11 12 -13 14 15 -16 -17 18 -19 20 -21 22 23 24 -25 26 -27 -28 29 30 -31 32 33 -34 35 36 37 38 0
1 -2 -3 4 5 -6 7 8 -9 -10 11 12 -13 14 15 -16 -17 18 -19 20 -21 22 23 -24 25 26 -27 -28 -29 30 -31 32 -33 34 35 36 37 -38 0
1 2 -3 -4 -5 6 7 -8 9 10 -11 -12 13 -14 -15 16 17 18 -19 20 21 -22 23 24 -25 -26 27 28 29 30 -31 -32 33 -34 35 36 37 38 0
1 2 -3 -4 -5 6 7 8 -9 10 -11 -12 -13 14 15 -16 17 18 -19 20 -21 22 23 24 -25 26 -27 -28 29 30 -31 32 33 -34 35 36 37 38 0
1 2 -3 -4 -5 6 7 -8 9 10 -11 12 13 14 -15 -16 17 -18 -19 20 -21 22 23 -24 25 -26 27 28 29 -30 31 -32 -33 34 -35 36 37 -38 0
1 2 -3 -4 -5 6 7 -8 9 10 -11 12 13 -14 15 -16 -17 18 -19 -20 21 22 23 24 25 -26 -27 -28 -29 30 31 32 33 -34 35 -36 37 38 0
1 2 -3 -4 -5 6 7 8 9 -10 -11 -12 -13 -14 15 16 17 -18 19 20 21 -22 -23 -24 -25 -26 27 28 29 30 -31 32 -33 34 35 36 37 -38 0
1 2 -3 -4 5 -6 7 8 -9 -10 11 12 -13 14 15 -16 -17 -18 19 20 -21 22 23 -24 -25 26 -27 -28 29 30 -31 32 -33 34 35 36 37 -38 0
1 2 -3 -4 -5 6 7 -8 9 10 -11 12 13 14 -15 -16 17 18 -19 -20 21 22 -23 24 25 -26 27 28 29 -30 31 -32 -33 34 -35 36 37 -38 0
1 2 -3 -4 5 -6 7 8 -9 -10 11 12 -13 14 15 -16 -17 -18 19 20 -21 22 23 -24 -25 26 -27 28 29 30 -31 32 -33 34 35 -36 -37 38 0
1 2 -3 -4 -5 6 7 8 -9 10 -11 12 -13 14 15 -16 17 18 -19 20 -21 22 -23 24 25 -26 27 28 29 -30 31 -32 -33 34 -35 36 37 -38 0
1 2 -3 -4 -5 6 7 -8 9 10 -11 12 13 -14 -15 16 17 18 -19 20 21 -22 -23 24 -25 -26 27 28 29 30 -31 32 33 -34 35 36 -37 38 0
1 2 -3 -4 -5 6 7 8 9 -10 -11 12 -13 -14 15 16 17 -18 19 20 21 -22 -23 -24 -25 -26 27 28 29 30 -31 32 33 -34 35 36 -37 38 0
1 2 -3 -4 5 -6 7 8 9 10 11 -12 -13 -14 -15 -16 17 -18 19 20 21 -22 23 -24 -25 26 27 28 29 -30 -31 -32 33 34 35 36 -37 38 0
1 2 -3 -4 -5 6 7 -8 9 -10 11 -12 13 -14 15 -16 17 18 -19 20 21 -22 23 24 -25 -26 27 28 29 30 -31 -32 33 -34 35 36 37 38 0
1 2 -3 -4 -5 6 7 -8 9 10 -11 -12 13 -14 15 -16 17 18 -19 20 21 -22 23 24 -25 -26 27 -28 29 30 -31 32 33 -34 35 36 37 38 0
1 2 -3 -4 -5 6 7 -8 9 -10 -11 12 13 -14 15 16 17 18 -19 20 21 -22 -23 24 -25 -26 27 28 29 30 -31 32 33 -34 35 36 -37 38 0
1 2 -3 -4 5 -6 7 8 -9 -10 11 12 -13 14 15 -16 -17 18 -19 20 21 -22 23 24 -25 -26 27 28 29 30 -31 -32 33 -34 35 36 37 38 0
1 2 -3 -4 5 -6 7 8 9 10 11 12 -13 -14 -15 -16 -17 -18 19 20 21 22 23 -24 -25 -26 -27 28 29 30 -31 32 -33 34 35 -36 -37 38 0
1 2 -3 -4 -5 6 7 -8 9 10 -11 12 13 -14 -15 -16 17 18 -19 20 21 22 23 24 -25 -26 -27 28 29 30 -31 32 -33 34 35 -36 -37 38 0
1 2 -3 -4 -5 6 7 -8 9 10 -11 12 13 -14 15 -16 17 18 -19 20 21 -22 -23 24 -25 -26 27 28 29 30 -31 32 -33 34 35 -36 -37 38 0
1 2 -3 -4 -5 6 7 -8 9 10 -11 12 13 -14 15 -16 17 18 -19 20 -21 22 -23 24 25 -26 27 28 29 -30 -31 -32 33 34 35 36 -37 38 0
1 2 -3 -4 -5 6 7 -8 9 10 -11 -12 13 -14 -15 16 17 18 -19 20 21 -22 -23 24 -25 -26 27 28 29 30 -31 32 33 -34 35 36 37 38 0
1 2 -3 -4 -5 6 7 -8 9 10 -11 12 13 -14 15 -16 17 18 -19 20 21 -22 -23 24 -25 -26 27 28 29 30 -31 -32 33 -34 35 36 37 38 0
1 2 -3 -4 -5 6 7 8 -9 10 -11 -12 -13 14 15 -16 17 -18 19 20 21 -22 23 -24 -25 -26 27 28 29 30 -31 -32 33 -34 35 36 37 38 0
1 2 -3 -4 -5 6 7 -8 9 10 -11 -12 13 -14 15 -16 17 18 -19 -20 21 -22 23 24 25 -26 27 -28 29 -30 31 32 -33 34 35 36 37 -38 0
1 -2 -3 4 5 -6 7 8 9 10 11 -12 -13 -14 -15 -16 17 -18 19 20 21 22 -23 -24 -25 -26 -27 28 29 30 -31 32 33 34 -35 36 37 38 0
1 2 -3 -4 -5 6 7 -8 9 10 -11 12 13 -14 15 -16 17 -18 -19 20 -21 22 -23 24 25 -26 27 28 -29 30 -31 -32 33 -34 35 36 37 38 0
1 2 -3 -4 -5 6 7 8 -9 10 -11 12 -13 14 15 -16 -17 18 -19 20 -21 22 23 24 -25 26 -27 -28 29 30 -31 32 33 -34 35 36 37 38 0
1 2 -3 -4 -5 6 7 -8 9 10 -11 12 13 -14 -15 16 17 18 -19 20 21 -22 -23 24 -25 -26 27 28 29 30 -31 -32 33 -34 35 36 37 38 0
1 2 -3 -4 -5 6 7 8 -9 10 -11 12 -13 14 15 -16 17 18 -19 20 -21 22 -23 -24 25 -26 27 28 -29 30 -31 -32 33 -34 35 36 37 38 0
1 2 -3 -4 5 -6 7 8 9 10 11 -12 -13 -14 -15 -16 17 -18 19 20 21 22 -23 -24 -25 -26 -27 28 29 30 -31 32 -33 34 35 36 37 -38 0
1 2 -3 -4 -5 6 7 8 9 -10 11 -12 -13 -14 15 -16 17 -18 19 20 21 -22 23 -24 -25 -26 27 -28 29 30 -31 32 33 -34 35 36 37 38 0
1 2 -3 -4 -5 6 7 8 -9 10 -11 12 -13 14 15 -16 17 18 -19 20 -21 22 23 24 -25 26 -27 -28 29 30 -31 32 33 -34 35 36 -37 38 0
1 2 -3 -4 -5 6 7 -8 9 -10 11 -12 13 -14 15 -16 17 18 -19 20 21 -22 23 24 -25 -26 27 -28 29 30 -31 32 33 -34 35 36 37 38 0
1 2 -3 -4 -5 6 7 8 9 -10 -11 12 -13 -14 15 16 17 -18 19 20 21 -22 -23 -24 -25 26 -27 28 29 30 -31 32 -33 34 35 -36 -37 38 0
1 2 -3 -4 -5 6 7 -8 9 10 -11 -12 13 -14 -15 16 17 18 -19 20 21 -22 -23 24 -25 26 -27 28 -29 30 -31 32 -33 34 35 36 37 38 0
1 2 -3 -4 -5 6 7 8 -9 10 -11 12 -13 14 15 -16 17 -18 19 20 21 -22 -23 -24 -25 -26 27 28 29 30 -31 -32 33 -34 35 36 37 38 0
1 2 -3 -4 -5 6 7 8 -9 10 -11 12 13 -14 15 -16 17 -18 -19 20 -21 22 -23 24 25 -26 27 28 -29 30 -31 -32 33 -34 35 36 37 38 0
1 2 -3 -4 -5 6 7 8 -9 10 -11 12 -13 14 15 -16 17 -18 19 20 21 -22 -23 -24 -25 -26 27 28 29 30 -31 32 -33 34 35 -36 -37 38 0
1 2 -3 -4 -5 6 7 -8 9 -10 -11 12 13 14 -15 16 17 -18 -19 20 -21 22 23 -24 25 -26 -27 28 29 30 -31 32 -33 34 35 -36 -37 38 0
1 2 -3 -4 -5 6 7 -8 9 -10 -11 12 13 -14 15 16 17 18 -19 20 21 -22 -23 24 -25 -26 27 28 29 30 -31 -32 33 -34 35 36 37 38 0
1 2 -3 -4 -5 6 7 -8 9 10 -11 12 13 -14 15 -16 17 18 -19 20 21 -22 -23 24 -25 -26 27 28 29 30 -31 32 33 -34 35 36 -37 38 0
1 -2 -3 4 5 -6 7 8 9 10 11 -12 -13 -14 -15 -16 17 -18 19 20 21 22 -23 -24 -25 -26 -27 28 29 30 -31 32 -33 34 35 36 37 -38 0
1 2 -3 -4 -5 6 7 -8 9 -10 -11 12 13 14 15 -16 17 -18 -19 20 -21 22 23 -24 25 -26 -27 28 29 30 -31 32 -33 34 35 -36 -37 38 0
1 2 -3 -4 -5 6 7 -8 9 10 -11 12 13 -14 -15 -16 17 18 -19 20 21 22 -23 24 -25 -26 27 28 29 30 -31 -32 33 -34 35 36 37 38 0
1 2 -3 -4 -5 6 7 -8 9 10 -11 12 13 14 -15 -16 17 18 -19 -20 21 22 -23 24 25 -26 27 28 29 -30 -31 -32 33 34 35 36 -37 38 0
1 2 -3 -4 5 -6 7 8 9 10 11 -12 -13 -14 -15 -16 17 -18 19 20 21 22 -23 -24 -25 -26 -27 28 29 30 -31 32 33 34 -35 36 37 38 0
1 2 -3 -4 5 -6 7 8 9 10 11 -12 -13 -14 -15 -16 17 -18 19 20 21 22 -23 -24 -25 -26 27 28 29 30 -31 -32 33 -34 35 36 37 38 0
1 2 -3 -4 5 -6 7 8 9 10 11 -12 -13 -14 -15 -16 17 -18 19 20 21 -22 23 -24 -25 -26 27 28 29 30 -31 -32 33 -34 35 36 37 38 0
1 -2 -3 4 5 -6 7 8 9 10 11 -12 -13 -14 -15 -16 17 -18 19 20 21 -22 23 -24 -25 -26 27 28 29 30 -31 -32 33 -34 35 36 37 38 0
1 2 -3 -4 -5 6 7 8 -9 10 -11 12 -13 14 15 -16 -17 18 -19 20 -21 22 23 -24 25 -26 27 -28 -29 30 -31 32 33 -34 35 36 37 38 0
1 2 -3 -4 5 -6 7 8 -9 -10 11 12 -13 14 15 -16 -17 18 -19 20 -21 22 23 -24 25 26 -27 -28 -29 30 -31 32 -33 34 35 36 37 -38 0
1 2 -3 -4 -5 6 7 8 -9 10 -11 12 -13 14 15 -16 17 -18 19 20 21 -22 -23 -24 -25 -26 27 28 29 30 -31 32 33 -34 35 36 -37 38 0
1 2 -3 -4 -5 6 7 -8 9 10 -11 -12 13 -14 15 -16 17 18 -19 20 21 -22 23 24 -25 -26 27 28 29 30 -31 -32 33 -34 35 36 37 38 0
1 2 -3 -4 -5 6 7 8 -9 10 -11 12 -13 14 15 -16 -17 18 -19 20 -21 22 23 -24 25 26 -27 -28 -29 30 -31 32 -33 34 35 36 37 -38 0
1 2 -3 -4 -5 6 7 -8 9 10 -11 12 13 -14 -15 -16 17 18 -19 20 21 22 -23 24 -25 -26 -27 28 29 30 -31 32 -33 34 35 36 37 -38 0
1 2 -3 -4 -5 6 7 -8 9 10 -11 12 13 -14 -15 -16 17 18 -19 20 21 22 23 24 -25 26 -27 -28 -29 30 -31 32 33 -34 35 36 37 38 0
1 2 -3 -4 -5 6 7 -8 9 -10 11 -12 13 14 -15 16 -17 -18 -19 20 -21 22 23 -24 25 -26 27 28 29 -30 -31 32 33 34 35 36 37 -38 0
1 2 -3 -4 -5 6 7 -8 9 -10 -11 12 13 14 15 16 17 -18 -19 -20 -21 -22 -23 24 25 26 27 28 29 -30 -31 32 33 -34 35 36 37 38 0
1 2 -3 -4 -5 6 7 8 -9 10 -11 -12 13 -14 15 16 17 18 19 -20 -21 -22 -23 24 25 26 27 28 29 30 -31 32 33 -34 -35 36 37 -38 0
1 2 -3 -4 -5 6 7 -8 9 -10 -11 -12 13 14 15 16 17 -18 -19 -20 -21 22 -23 24 25 -26 27 -28 -29 30 31 32 33 34 35 36 37 -38 0
1 2 -3 -4 -5 6 7 -8 9 -10 -11 -12 13 14 15 16 17 -18 -19 -20 -21 -22 23 24 25 26 -27 28 29 -30 31 32 33 34 35 36 -37 38 0
1 2 -3 -4 -5 6 7 -8 9 10 -11 12 13 -14 -15 16 17 18 -19 20 21 -22 -23 24 -25 26 27 28 -29 30 -31 -32 33 -34 35 36 37 38 0
1 2 -3 -4 -5 6 7 8 9 -10 11 -12 13 14 -15 16 -17 -18 -19 -20 21 22 23 24 25 -26 -27 -28 -29 30 31 32 33 -34 35 -36 37 38 0
1 2 -3 -4 -5 6 7 8 -9 10 -11 12 -13 14 15 -16 -17 18 -19 20 -21 22 23 24 25 -26 27 -28 29 -30 31 -32 33 34 35 36 37 -38 0
1 2 -3 -4 -5 6 7 -8 9 -10 -11 -12 13 14 15 16 17 -18 -19 -20 -21 22 -23 24 25 -26 27 -28 29 30 31 32 33 34 35 36 -37 38 0
1 2 -3 -4 -5 6 7 8 9 -10 -11 -12 -13 -14 15 16 17 -18 19 20 21 -22 -23 -24 -25 -26 27 28 29 30 -31 32 -33 34 35 36 37 38 0
1 2 -3 -4 -5 6 7 8 -9 10 -11 12 -13 14 15 -16 -17 18 -19 20 -21 22 23 -24 25 -26 -27 28 29 30 31 32 -33 -34 35 -36 37 38 0
1 2 -3 -4 -5 6 7 -8 9 -10 -11 12 13 14 -15 16 17 -18 -19 20 21 -22 -23 24 -25 -26 27 28 29 30 -31 32 33 -34 35 36 37 38 0
1 2 -3 -4 -5 6 7 -8 9 -10 11 -12 13 -14 15 -16 17 18 -19 20 21 -22 23 24 25 26 -27 -28 29 30 31 32 33 -34 -35 36 37 -38 0
1 2 -3 -4 -5 6 7 -8 9 -10 11 -12 13 14 15 -16 17 -18 -19 -20 21 -22 23 24 25 -26 27 -28 29 -30 31 32 -33 34 35 36 37 -38 0
1 2 -3 -4 -5 6 7 8 9 -10 -11 -12 -13 -14 15 16 17 -18 19 20 -21 22 -23 -24 25 -26 27 -28 -29 30 31 32 33 34 35 36 -37 38 0
1 2 -3 -4 -5 6 7 8 -9 10 -11 12 -13 14 15 -16 17 -18 19 20 21 -22 -23 24 25 26 27 28 -29 -30 -31 -32 33 34 35 -36 -37 38 0
1 2 -3 -4 -5 6 7 -8 9 10 -11 -12 13 -14 15 -16 17 18 -19 20 21 -22 23 24 25 26 -27 -28 29 30 31 32 33 -34 -35 36 37 -38 0
1 2 -3 -4 -5 6 7 -8 9 -10 -11 -12 13 14 15 16 17 18 -19 -20 -21 22 -23 24 25 -26 27 -28 -29 30 31 32 33 34 35 36 -37 38 0
1 2 -3 -4 -5 6 7 -8 9 10 -11 12 13 14 -15 -16 17 -18 -19 -20 21 22 23 24 25 -26 -27 -28 -29 30 31 32 33 -34 35 -36 37 38 0
1 2 -3 -4 -5 6 7 -8 9 -10 -11 12 13 14 15 -16 17 -18 -19 -20 -21 22 23 24 25 26 -27 -28 29 -30 31 32 33 -34 35 36 37 38 0
1 2 -3 -4 -5 6 7 8 9 -10 -11 -12 -13 -14 15 16 17 -18 19 20 21 -22 -23 -24 -25 26 -27 28 29 -30 31 32 33 34 35 36 37 -38 0
1 2 -3 -4 -5 6 7 -8 9 -10 -11 -12 13 14 15 16 17 18 -19 -20 -21 22 -23 24 25 -26 27 -28 29 -30 31 32 -33 34 35 36 37 38 0
1 -2 -3 4 5 -6 7 8 9 10 11 -12 -13 -14 -15 -16 17 -18 19 20 21 -22 23 24 -25 26 27 28 -29 30 -31 32 33 -34 -35 36 37 -38 0
1 2 -3 -4 -5 6 7 8 9 -10 11 -12 13 14 -15 16 -17 -18 -19 -20 -21 22 23 24 25 26 -27 -28 29 -30 31 32 33 -34 35 36 37 38 0
1 2 -3 -4 5 -6 7 8 9 10 11 12 -13 -14 -15 -16 -17 18 -19 20 21 22 23 24 25 26 -27 -28 29 -30 31 32 33 -34 -35 36 37 -38 0
1 2 -3 -4 -5 6 7 -8 9 10 -11 -12 13 -14 -15 16 17 18 -19 20 21 22 -23 24 -25 -26 -27 28 29 30 -31 32 -33 34 35 36 37 38 0
1 2 -3 -4 -5 6 7 -8 9 -10 -11 12 13 14 -15 16 17 -18 -19 20 21 -22 -23 24 -25 -26 27 28 29 30 -31 32 -33 34 35 36 37 -38 0
1 -2 -3 4 5 -6 7 8 -9 -10 11 12 -13 14 15 -16 -17 18 -19 20 -21 22 23 -24 25 -26 27 -28 29 -30 31 -32 33 34 35 36 37 38 0
1 -2 -3 4 5 -6 7 8 -9 -10 11 12 -13 14 15 -16 -17 18 -19 20 -21 22 23 24 25 -26 27 -28 29 -30 31 -32 33 34 35 36 37 -38 0
1 -2 -3 4 5 -6 7 8 -9 -10 11 12 -13 14 15 -16 -17 18 -19 20 -21 22 23 -24 25 26 -27 -28 -29 30 -31 32 -33 34 35 36 37 38 0
1 2 -3 -4 -5 6 7 -8 9 -10 -11 12 13 14 15 16 17 18 -19 -20 -21 -22 23 24 25 26 -27 28 29 -30 31 32 33 -34 -35 36 37 -38 0
1 2 -3 -4 -5 6 7 -8 9 -10 -11 -12 13 -14 15 16 17 18 -19 20 21 -22 -23 24 -25 -26 27 28 29 30 -31 32 -33 34 35 36 37 38 0
1 2 -3 -4 -5 6 7 8 9 -10 -11 12 13 14 -15 16 17 18 19 20 21 -22 -23 -24 -25 -26 27 28 29 30 -31 -32 -33 34 35 -36 -37 38 0
1 2 -3 -4 -5 6 7 -8 9 10 -11 -12 13 -14 15 -16 17 18 -19 -20 21 -22 23 24 25 -26 27 -28 29 -30 31 32 -33 34 35 36 37 38 0
1 -2 -3 4 5 -6 7 8 -9 -10 11 12 -13 14 15 -16 -17 -18 19 20 -21 22 23 -24 -25 26 -27 -28 29 30 -31 32 -33 34 35 36 37 38 0
1 2 -3 -4 -5 6 7 8 9 -10 11 -12 -13 -14 -15 16 -17 -18 19 20 21 22 23 24 -25 26 -27 -28 -29 30 -31 32 -33 34 35 36 37 38 0
1 2 -3 -4 -5 6 7 -8 9 -10 -11 12 13 14 15 -16 17 18 -19 -20 -21 22 23 24 25 26 -27 -28 29 -30 31 32 33 -34 35 -36 37 38 0
1 2 -3 -4 -5 6 7 -8 9 10 -11 -12 13 -14 -15 16 17 18 -19 20 21 -22 -23 24 -25 -26 27 28 29 30 -31 32 -33 34 35 36 37 38 0
1 2 -3 -4 -5 6 7 8 -9 10 -11 12 -13 14 15 -16 -17 18 -19 20 -21 22 23 -24 25 -26 -27 28 29 30 -31 32 -33 34 35 36 37 -38 0
1 2 -3 -4 -5 6 7 -8 9 -10 -11 -12 13 14 15 16 17 18 -19 -20 21 -22 -23 24 -25 26 -27 28 29 30 31 -32 33 34 35 36 37 -38 0
1 2 -3 -4 -5 6 7 -8 9 10 -11 12 13 14 -15 -16 17 18 -19 -20 21 22 -23 24 25 -26 27 28 -29 30 -31 -32 33 -34 35 36 37 38 0
1 2 -3 -4 -5 6 7 -8 9 10 -11 -12 13 -14 -15 16 17 18 -19 20 21 -22 -23 24 -25 26 -27 28 29 -30 31 32 33 34 35 36 37 -38 0
1 2 -3 -4 -5 6 7 -8 9 10 -11 12 13 -14 -15 16 17 18 -19 20 21 -22 -23 24 -25 26 -27 28 -29 30 -31 32 -33 34 35 36 37 -38 0
1 2 -3 -4 -5 6 7 -8 9 -10 -11 12 13 14 15 -16 17 -18 -19 -20 21 22 23 24 25 -26 -27 -28 -29 30 31 32 33 -34 35 -36 37 38 0
1 2 -3 -4 -5 6 7 8 9 -10 11 -12 13 14 -15 16 -17 -18 -19 -20 -21 22 23 24 25 26 27 -28 29 -30 -31 32 33 -34 35 36 37 38 0
1 2 -3 -4 -5 6 7 -8 9 -10 -11 12 13 14 -15 16 17 -18 -19 20 21 -22 23 24 -25 -26 27 28 29 30 -31 -32 33 -34 35 36 37 38 0
1 2 -3 -4 5 -6 7 8 -9 -10 11 12 -13 14 15 -16 -17 18 -19 20 -21 22 23 -24 25 -26 27 -28 29 -30 31 -32 33 34 35 36 37 38 0
1 2 -3 -4 -5 6 7 8 9 -10 -11 -12 -13 -14 15 16 17 -18 19 20 21 -22 -23 -24 -25 26 -27 28 29 30 -31 32 -33 34 35 36 37 38 0
1 2 -3 -4 5 -6 7 8 9 10 11 -12 -13 -14 -15 -16 17 -18 19 20 21 22 -23 -24 -25 -26 -27 28 29 30 -31 32 -33 34 35 36 37 38 0
1 2 -3 -4 5 -6 7 8 -9 -10 11 12 -13 14 15 -16 -17 18 -19 20 -21 22 23 24 25 -26 27 -28 29 -30 31 -32 33 34 35 36 37 -38 0
1 2 -3 -4 -5 6 7 -8 9 10 -11 -12 13 -14 -15 16 17 18 -19 20 21 22 -23 24 -25 -26 -27 28 29 30 -31 32 33 34 35 36 37 -38 0
1 2 -3 -4 5 -6 7 8 9 10 11 -12 -13 -14 -15 -16 17 -18 19 20 21 -22 23 24 -25 26 27 28 -29 30 -31 32 33 -34 -35 36 37 -38 0
1 2 -3 -4 -5 6 7 -8 9 10 -11 12 13 -14 15 -16 -17 18 -19 -20 21 22 23 24 25 -26 27 -28 29 -30 31 -32 33 34 35 36 37 -38 0
1 2 -3 -4 -5 6 7 -8 9 -10 -11 12 13 14 -15 16 17 -18 -19 20 21 -22 23 24 -25 -26 -27 28 29 30 31 32 -33 -34 35 -36 37 38 0
1 -2 -3 4 5 -6 7 8 -9 -10 11 12 -13 14 15 -16 -17 18 -19 20 -21 22 23 -24 25 -26 -27 28 29 30 31 32 -33 -34 35 -36 37 38 0
1 2 -3 -4 5 -6 7 8 -9 -10 11 12 -13 14 15 -16 -17 -18 19 20 -21 22 23 -24 -25 26 -27 -28 29 30 -31 32 -33 34 35 36 37 38 0
1 2 -3 -4 -5 6 7 -8 9 -10 -11 12 13 14 -15 16 17 -18 -19 20 -21 22 23 -24 25 -26 27 -28 29 -30 31 -32 33 34 35 36 37 -38 0
1 2 -3 -4 -5 6 7 -8 9 10 -11 12 13 14 -15 -16 17 -18 -19 20 -21 22 23 -24 25 -26 27 28 29 -30 -31 32 33 34 35 -36 -37 38 0
1 2 -3 -4 -5 6 7 8 -9 10 -11 12 -13 14 15 -16 17 18 -19 20 -21 22 23 -24 25 -26 -27 -28 -29 30 31 32 33 -34 35 -36 37 38 0
1 2 -3 -4 -5 6 7 8 -9 10 -11 12 -13 14 15 -16 17 18 -19 20 -21 22 23 -24 25 -26 -27 28 29 30 31 32 -33 -34 -35 36 37 -38 0
1 -2 -3 4 5 -6 7 8 -9 -10 11 12 -13 14 15 -16 -17 18 -19 20 -21 22 23 -24 25 -26 -27 28 29 30 -31 32 -33 34 35 36 37 -38 0
1 2 -3 -4 -5 6 7 -8 9 10 -11 12 13 -14 -15 -16 17 18 -19 20 21 22 23 24 -25 -26 -27 -28 29 30 -31 32 33 34 35 36 37 -38 0
1 2 -3 -4 -5 6 7 -8 9 10 -11 12 13 -14 -15 -16 17 18 -19 20 21 22 -23 24 -25 26 -27 28 -29 30 -31 32 -33 34 35 36 37 -38 0
1 2 -3 -4 -5 6 7 8 -9 10 -11 -12 -13 14 15 -16 17 18 -19 20 -21 22 23 -24 25 -26 -27 28 29 30 31 32 -33 -34 35 -36 37 38 0
1 2 -3 -4 5 -6 7 8 9 10 11 12 -13 -14 -15 -16 -17 -18 19 20 21 22 23 -24 -25 -26 -27 -28 29 30 -31 32 33 34 35 36 37 -38 0
1 2 -3 -4 -5 6 7 8 -9 10 -11 12 -13 14 15 -16 -17 18 -19 20 -21 22 23 -24 25 -26 27 -28 29 -30 31 -32 33 34 35 36 37 38 0
1 2 -3 -4 -5 6 7 -8 9 10 -11 12 13 -14 15 -16 -17 18 -19 20 -21 22 23 24 25 -26 27 -28 29 -30 31 -32 33 34 35 36 37 -38 0
1 2 -3 -4 5 -6 7 8 -9 -10 11 12 -13 14 15 -16 -17 18 -19 20 -21 22 23 -24 25 -26 -27 28 29 30 31 32 -33 -34 35 -36 37 38 0
1 2 -3 -4 -5 6 7 8 -9 10 -11 -12 -13 14 15 -16 17 18 -19 20 -21 22 23 -24 25 26 -27 -28 -29 30 -31 32 -33 34 35 36 37 38 0
1 2 -3 -4 -5 6 7 8 -9 10 -11 12 -13 14 15 -16 -17 18 -19 20 -21 22 23 -24 25 26 -27 -28 -29 30 -31 32 -33 34 35 36 37 38 0
1 2 -3 -4 5 -6 7 8 9 10 11 12 -13 -14 -15 -16 -17 -18 19 20 21 -22 23 24 -25 26 27 28 -29 30 -31 32 33 -34 -35 36 37 -38 0
1 2 -3 -4 -5 6 7 -8 9 10 -11 12 13 -14 -15 -16 17 18 -19 20 21 22 -23 24 -25 -26 -27 28 29 30 -31 32 -33 34 35 36 37 38 0
1 2 -3 -4 -5 6 7 -8 9 10 -11 12 13 -14 -15 -16 17 18 -19 20 21 22 23 24 -25 26 -27 -28 -29 30 -31 32 -33 34 35 36 37 -38 0
1 2 -3 -4 5 -6 7 8 -9 -10 11 12 -13 14 15 -16 -17 18 -19 20 -21 22 23 -24 25 -26 -27 28 29 30 -31 32 -33 34 35 36 37 -38 0
1 2 -3 -4 -5 6 7 8 -9 10 -11 12 -13 14 15 -16 17 18 -19 20 -21 22 23 -24 25 -26 -27 -28 29 30 31 32 -33 -34 35 -36 37 38 0
1 2 -3 -4 -5 6 7 -8 9 10 -11 12 13 -14 -15 -16 17 18 -19 20 21 22 -23 24 -25 -26 -27 28 29 30 -31 32 33 34 35 36 37 -38 0
1 2 -3 -4 5 -6 7 8 -9 -10 11 12 -13 14 15 -16 -17 18 -19 20 -21 22 23 -24 25 26 -27 -28 -29 30 -31 32 -33 34 35 36 37 38 0
1 2 -3 -4 -5 6 7 8 -9 10 -11 12 -13 14 15 -16 17 18 -19 20 -21 22 23 -24 25 -26 -27 28 29 30 -31 32 -33 34 35 -36 -37 38 0
1 2 -3 -4 5 -6 7 8 9 10 11 12 -13 -14 -15 -16 -17 -18 19 20 21 22 23 24 -25 26 -27 28 -29 30 -31 -32 33 34 35 -36 -37 38 0
1 2 -3 -4 -5 6 7 -8 9 10 -11 -12 13 -14 15 -16 17 18 -19 -20 21 22 23 24 25 -26 27 28 -29 30 -31 32 33 -34 35 36 -37 38 0
1 -2 -3 4 5 -6 7 8 9 10 11 -12 -13 -14 -15 -16 17 -18 19 20 21 22 -23 -24 -25 -26 -27 28 29 30 -31 32 -33 34 35 36 37 38 0
1 -2 -3 4 5 -6 7 8 9 10 11 -12 -13 -14 -15 -16 17 -18 19 20 21 22 -23 -24 -25 -26 -27 28 29 30 -31 32 33 34 35 36 37 -38 0
1 2 -3 -4 -5 6 7 8 -9 10 -11 -12 -13 14 15 -16 17 18 -19 20 -21 22 23 -24 25 -26 -27 28 29 30 -31 32 -33 34 35 36 37 -38 0
1 2 -3 -4 5 -6 7 8 9 10 11 -12 -13 -14 -15 -16 17 -18 19 20 21 22 -23 -24 -25 -26 -27 28 29 30 -31 32 33 34 35 36 37 -38 0
1 2 -3 -4 -5 6 7 -8 9 -10 -11 -12 13 14 15 16 17 -18 -19 20 -21 -22 23 -24 25 -26 27 28 29 -30 31 32 33 34 35 36 -37 38 0
1 2 -3 -4 -5 6 7 -8 9 10 -11 12 13 14 -15 -16 17 18 -19 -20 21 22 23 24 25 -26 -27 -28 -29 30 31 32 33 -34 35 -36 37 38 0
1 2 -3 -4 -5 6 7 -8 9 10 -11 -12 13 -14 -15 16 17 18 -19 20 21 22 -23 24 -25 -26 -27 28 29 30 -31 32 33 34 35 36 37 38 0
1 2 -3 -4 -5 6 7 -8 9 10 -11 12 13 -14 -15 16 17 18 -19 20 21 -22 -23 24 -25 26 -27 28 -29 30 -31 32 -33 34 35 36 37 38 0
1 2 -3 -4 -5 6 7 8 9 -10 -11 12 -13 -14 15 16 17 -18 19 20 21 -22 -23 -24 -25 -26 27 28 29 30 -31 32 -33 34 35 36 37 -38 0
1 2 -3 -4 -5 6 7 -8 9 -10 11 -12 13 14 15 -16 17 -18 -19 -20 21 -22 23 24 25 -26 27 -28 29 -30 31 32 -33 34 35 36 37 38 0
1 2 -3 -4 -5 6 7 8 -9 10 -11 -12 -13 14 15 -16 17 18 -19 20 -21 22 23 -24 25 -26 -27 28 29 30 -31 32 -33 34 35 36 37 38 0
1 2 -3 -4 -5 6 7 8 -9 10 -11 -12 13 -14 15 16 17 -18 -19 20 -21 22 -23 24 25 -26 27 -28 -29 30 31 32 33 34 35 36 -37 38 0
1 2 -3 -4 -5 6 7 8 9 -10 -11 12 13 14 -15 16 17 18 19 20 21 -22 -23 -24 -25 -26 27 28 29 30 -31 32 33 -34 -35 36 37 -38 0
1 2 -3 -4 -5 6 7 -8 9 -10 -11 -12 13 14 15 16 17 -18 -19 -20 -21 -22 23 24 25 26 -27 28 29 -30 31 32 33 34 35 36 37 -38 0
1 2 -3 -4 5 -6 7 8 9 10 11 12 -13 -14 -15 -16 -17 -18 19 20 21 22 23 24 -25 26 -27 -28 -29 30 -31 32 33 -34 35 36 37 38 0
1 2 -3 -4 -5 6 7 8 9 -10 -11 12 -13 -14 15 16 17 -18 19 20 21 -22 -23 -24 -25 26 -27 28 29 30 -31 32 -33 34 35 36 37 -38 0
1 2 -3 -4 -5 6 7 -8 9 -10 -11 12 13 14 15 -16 17 -18 -19 20 -21 22 23 -24 25 -26 -27 28 29 30 -31 32 -33 34 35 36 37 -38 0
1 -2 -3 4 5 -6 7 8 -9 -10 11 -12 -13 14 15 -16 17 18 -19 20 21 -22 23 24 25 26 27 -28 29 30 31 32 -33 -34 -35 36 37 -38 0
1 2 -3 -4 -5 6 7 8 9 -10 -11 -12 -13 -14 15 16 17 -18 19 20 -21 22 -23 -24 25 -26 27 -28 -29 30 31 32 33 34 35 36 37 -38 0
1 2 -3 -4 -5 6 7 -8 9 -10 -11 -12 13 14 15 16 17 -18 -19 -20 -21 22 -23 24 25 -26 27 -28 -29 30 31 32 33 34 35 36 37 38 0
1 2 -3 -4 -5 6 7 -8 9 -10 -11 12 13 14 -15 16 17 -18 -19 20 -21 22 23 -24 25 -26 27 -28 29 -30 31 -32 33 34 35 36 37 38 0
1 2 -3 -4 -5 6 7 8 9 -10 11 -12 13 14 -15 16 -17 18 19 -20 -21 22 23 24 25 -26 27 28 29 -30 31 -32 -33 34 -35 36 37 -38 0
1 2 3 4 5 6 7 8 9 10 -11 12 -13 -14 -15 -16 -17 -18 19 20 21 22 23 -24 -25 -26 -27 -28 29 30 31 32 -33 -34 -35 36 37 -38 0
1 2 -3 -4 -5 6 7 -8 9 10 -11 12 13 -14 -15 16 17 18 -19 20 21 -22 -23 24 -25 -26 27 28 29 30 -31 32 33 -34 35 36 37 38 0
1 2 -3 -4 -5 6 7 -8 9 10 -11 -12 13 -14 -15 16 17 18 -19 20 21 -22 23 24 -25 26 -27 28 29 -30 31 32 33 34 35 36 -37 38 0
1 2 3 4 5 6 -7 8 9 10 -11 12 -13 -14 -15 -16 17 -18 19 20 21 22 23 -24 -25 -26 -27 -28 29 30 31 32 -33 -34 -35 36 37 -38 0
1 2 -3 -4 -5 6 7 8 9 -10 -11 12 -13 -14 15 16 17 -18 19 20 -21 -22 -23 24 -25 26 27 28 -29 30 31 -32 33 34 -35 36 37 38 0
1 2 -3 -4 5 -6 7 8 -9 -10 11 12 -13 14 15 -16 -17 18 -19 20 -21 22 23 -24 25 -26 -27 28 29 30 -31 32 -33 34 35 36 37 38 0
1 -2 -3 4 5 -6 7 8 -9 -10 11 12 -13 14 15 -16 -17 -18 19 20 -21 22 23 -24 -25 26 -27 28 29 30 -31 32 -33 34 35 36 37 -38 0
1 2 -3 -4 -5 6 7 -8 9 -10 11 -12 13 14 -15 16 -17 -18 -19 -20 21 22 23 24 25 26 27 28 29 30 -31 32 33 -34 -35 36 37 -38 0
1 2 -3 -4 -5 6 7 -8 9 10 -11 12 13 -14 -15 16 17 18 -19 20 21 -22 -23 24 -25 26 -27 28 -29 30 31 32 33 -34 35 -36 37 38 0
1 -2 -3 4 5 -6 7 8 -9 -10 11 12 -13 14 15 -16 -17 18 -19 20 -21 22 23 -24 25 26 -27 28 -29 30 -31 32 -33 34 35 36 37 -38 0
1 2 -3 -4 -5 6 7 8 9 -10 11 -12 13 14 -15 16 -17 18 19 -20 -21 22 23 -24 25 26 -27 -28 -29 30 -31 32 -33 34 35 36 37 -38 0
1 2 -3 -4 -5 6 7 8 9 -10 -11 -12 -13 -14 15 16 17 18 -19 20 21 -22 -23 24 25 -26 -27 28 29 30 31 32 33 34 35 36 -37 38 0
1 2 -3 -4 5 -6 7 8 -9 -10 11 12 -13 14 15 -16 -17 -18 19 20 -21 22 23 -24 -25 26 -27 28 29 30 -31 32 -33 34 35 36 37 -38 0
1 2 -3 -4 -5 6 7 -8 9 -10 -11 12 13 -14 15 16 17 18 -19 20 21 -22 -23 24 -25 -26 27 28 29 30 -31 32 33 -34 35 36 37 38 0
1 2 -3 -4 -5 6 7 -8 9 -10 -11 12 13 14 -15 16 17 -18 -19 20 21 -22 -23 24 -25 -26 27 28 29 30 -31 32 -33 34 35 36 37 38 0
1 2 -3 -4 -5 6 7 -8 9 -10 -11 12 13 -14 15 16 17 18 -19 20 21 -22 -23 24 -25 -26 27 28 29 30 -31 32 -33 34 35 36 37 -38 0
1 -2 -3 4 5 -6 7 8 -9 -10 11 12 -13 14 15 -16 -17 18 -19 20 -21 22 23 -24 25 -26 -27 28 29 30 -31 32 -33 34 35 36 37 38 0
1 2 -3 -4 5 -6 7 8 9 10 11 -12 -13 -14 -15 -16 17 -18 19 20 21 22 -23 -24 -25 -26 -27 28 29 30 -31 32 33 34 35 36 37 38 0
1 -2 -3 4 5 -6 7 8 9 10 11 -12 -13 -14 -15 -16 17 18 -19 20 21 -22 23 24 25 26 27 -28 29 30 31 32 -33 -34 -35 36 37 -38 0
1 2 -3 -4 -5 6 7 -8 9 10 -11 12 13 -14 15 -16 -17 18 -19 20 -21 22 23 24 25 -26 27 -28 29 -30 31 -32 33 34 35 36 37 38 0
1 2 -3 -4 -5 6 7 -8 9 -10 -11 -12 13 14 15 16 17 18 -19 -20 21 -22 -23 24 -25 26 -27 28 29 30 31 32 33 34 35 36 -37 38 0
1 2 -3 -4 -5 6 7 -8 9 -10 -11 12 13 14 15 -16 17 18 -19 -20 -21 22 23 24 25 26 -27 -28 29 -30 31 32 33 -34 35 36 37 38 0
1 2 -3 -4 -5 6 7 8 9 -10 11 -12 -13 -14 15 -16 17 18 -19 20 21 -22 23 24 25 -26 27 -28 29 30 -31 32 33 34 -35 36 37 38 0
1 2 -3 -4 -5 6 7 -8 9 -10 -11 12 13 14 15 -16 17 18 -19 -20 21 22 23 24 25 -26 -27 -28 -29 30 31 32 33 -34 35 -36 37 38 0
1 2 -3 -4 -5 6 7 -8 9 10 -11 12 13 -14 15 -16 -17 18 -19 -20 21 22 23 24 25 -26 27 -28 29 -30 31 -32 33 34 35 36 37 38 0
1 2 -3 -4 -5 6 7 -8 9 -10 -11 -12 13 14 15 16 17 18 -19 -20 -21 22 -23 24 25 -26 27 -28 -29 30 31 32 33 34 35 36 37 -38 0
1 2 -3 -4 -5 6 7 8 -9 10 -11 12 -13 14 15 -16 17 -18 19 20 21 -22 -23 -24 -25 -26 27 28 29 30 -31 32 -33 34 35 36 37 -38 0
1 2 -3 -4 -5 6 7 8 9 -10 -11 -12 -13 -14 15 16 17 -18 19 20 21 -22 -23 -24 -25 26 -27 28 29 -30 31 32 33 34 35 36 37 38 0
1 2 -3 -4 -5 6 7 -8 9 -10 -11 -12 13 14 15 16 17 18 -19 -20 -21 22 -23 24 25 -26 27 -28 29 30 31 32 33 34 35 36 -37 38 0
1 2 -3 -4 -5 6 7 -8 9 -10 -11 12 13 14 -15 16 17 -18 -19 20 -21 22 23 24 25 -26 27 -28 -29 30 -31 32 33 -34 35 36 37 38 0
1 2 -3 -4 -5 6 7 8 -9 10 -11 -12 13 -14 15 16 17 18 19 -20 -21 22 -23 24 25 -26 27 -28 29 -30 31 32 -33 34 35 36 37 -38 0
1 2 -3 -4 5 -6 7 8 -9 -10 11 12 -13 14 15 -16 -17 18 -19 20 -21 22 23 24 25 -26 27 -28 29 -30 31 -32 33 34 35 36 37 38 0
1 2 -3 -4 -5 6 7 -8 9 -10 -11 -12 13 14 15 16 17 -18 -19 -20 -21 22 -23 24 25 -26 27 -28 29 30 31 32 33 34 35 36 37 -38 0
1 2 -3 -4 -5 6 7 -8 9 -10 11 -12 13 14 -15 16 -17 -18 -19 20 -21 22 23 -24 25 -26 27 28 29 -30 -31 32 33 34 35 36 37 38 0
1 -2 -3 4 5 -6 7 8 -9 -10 11 12 -13 14 15 -16 -17 -18 19 20 -21 22 23 24 25 26 -27 -28 29 30 31 32 33 -34 -35 36 37 -38 0
1 2 -3 -4 -5 6 7 -8 9 -10 -11 -12 13 14 15 16 17 18 -19 -20 -21 -22 23 24 25 26 -27 28 29 -30 31 32 33 34 35 36 -37 38 0
1 2 -3 -4 -5 6 7 -8 9 10 -11 12 13 -14 -15 16 17 18 -19 20 21 -22 -23 24 -25 -26 27 28 29 30 -31 32 -33 34 35 36 37 -38 0
1 -2 -3 4 5 -6 7 8 -9 -10 11 12 -13 14 15 -16 -17 -18 19 20 -21 22 23 24 25 26 -27 28 29 -30 -31 32 33 34 35 -36 -37 38 0
1 2 -3 -4 -5 6 7 -8 9 10 -11 12 13 -14 -15 16 17 18 -19 20 21 -22 -23 24 -25 26 -27 28 29 -30 31 32 33 34 35 36 -37 38 0
1 2 -3 -4 -5 6 7 8 9 -10 -11 12 -13 -14 15 16 17 -18 19 20 21 -22 -23 -24 -25 26 -27 28 29 -30 31 32 33 34 35 36 -37 38 0
1 2 -3 -4 5 -6 7 8 -9 -10 11 12 -13 14 15 -16 -17 -18 19 20 -21 22 23 24 25 26 -27 28 29 -30 -31 32 33 34 35 -36 -37 38 0
1 2 -3 -4 -5 6 7 8 -9 10 -11 -12 13 -14 15 -16 17 18 19 -20 21 -22 23 24 25 -26 27 -28 29 30 -31 32 33 34 -35 36 37 38 0
1 2 -3 -4 -5 6 7 -8 9 -10 -11 12 13 14 15 16 17 18 -19 -20 -21 -22 -23 24 25 26 27 28 29 -30 -31 32 33 -34 35 36 37 38 0
1 2 -3 -4 5 -6 7 8 -9 -10 11 12 -13 14 15 -16 -17 -18 19 20 -21 22 23 24 25 26 -27 -28 29 30 31 32 33 -34 -35 36 37 -38 0
1 2 -3 -4 -5 6 7 -8 9 10 -11 12 13 -14 -15 -16 17 18 -19 20 21 22 23 24 -25 26 27 28 29 -30 31 -32 -33 34 -35 36 37 -38 0
1 2 -3 -4 -5 6 7 -8 9 -10 -11 12 13 14 15 16 17 -18 -19 20 -21 -22 23 -24 25 -26 -27 28 29 30 31 32 -33 -34 35 -36 37 38 0
1 2 -3 -4 -5 6 7 -8 9 -10 -11 -12 13 14 15 16 17 18 -19 -20 21 -22 -23 24 -25 26 -27 28 29 30 31 -32 33 34 35 36 37 38 0
1 2 3 4 5 6 -7 8 9 10 -11 12 -13 -14 -15 -16 17 -18 19 20 21 22 -23 -24 -25 -26 27 28 29 30 -31 -32 -33 34 35 -36 -37 38 0
1 2 -3 -4 -5 6 7 8 -9 10 -11 12 -13 14 15 -16 -17 18 -19 20 -21 22 23 -24 25 26 -27 28 -29 30 -31 32 -33 34 35 36 37 -38 0
1 2 3 4 5 6 -7 8 9 10 -11 12 -13 -14 -15 -16 17 -18 19 20 21 22 -23 -24 -25 -26 -27 28 29 30 31 -32 33 -34 35 36 -37 38 0
1 2 -3 -4 -5 6 7 -8 9 10 -11 -12 13 -14 15 -16 17 18 -19 20 -21 22 23 24 -25 26 27 28 29 30 31 -32 33 -34 35 36 -37 38 0
1 2 -3 -4 5 -6 7 8 9 10 11 -12 -13 -14 -15 -16 17 18 -19 20 21 -22 23 24 25 26 27 -28 29 30 31 32 -33 -34 -35 36 37 -38 0
1 2 -3 -4 -5 6 7 -8 9 -10 -11 12 13 14 15 16 17 18 -19 -20 21 -22 -23 24 -25 26 -27 28 29 30 31 -32 33 34 35 36 -37 38 0
1 2 -3 -4 -5 6 7 -8 9 10 -11 12 13 -14 15 -16 17 18 -19 20 21 -22 -23 24 -25 -26 27 28 29 30 -31 32 33 -34 35 36 37 38 0
1 -2 -3 4 5 -6 7 8 9 10 11 -12 -13 -14 -15 -16 17 -18 19 20 21 22 -23 -24 -25 -26 -27 28 29 30 -31 32 33 34 35 36 37 38 0
1 2 -3 -4 -5 6 7 8 -9 10 -11 12 -13 14 15 -16 -17 18 -19 20 -21 22 23 24 25 -26 27 -28 29 -30 31 -32 33 34 35 36 37 38 0
1 2 -3 -4 5 -6 7 8 -9 -10 11 12 -13 14 15 -16 -17 18 -19 20 21 -22 23 24 25 26 27 -28 29 30 31 32 -33 -34 -35 36 37 -38 0
1 2 -3 -4 -5 6 7 -8 9 10 -11 12 13 -14 -15 -16 17 18 -19 20 21 22 23 24 -25 -26 -27 28 29 30 -31 32 33 34 -35 36 37 38 0
1 2 -3 -4 -5 6 7 8 -9 10 -11 12 -13 14 15 -16 17 -18 19 20 21 -22 -23 24 25 26 27 28 -29 -30 -31 -32 33 34 35 36 -37 38 0
1 2 -3 -4 -5 6 7 8 -9 10 -11 12 -13 14 15 -16 17 18 -19 20 -21 22 23 24 -25 26 -27 -28 29 30 -31 32 33 -34 35 36 37 38 0
1 2 -3 -4 -5 6 7 -8 9 10 -11 12 13 14 -15 -16 17 18 -19 -20 21 22 23 24 -25 26 -27 -28 29 30 -31 32 33 -34 35 36 37 38 0
1 2 3 4 5 6 7 -8 9 -10 -11 12 13 -14 15 -16 -17 18 -19 20 21 22 23 24 -25 -26 -27 -28 29 30 31 32 -33 -34 -35 36 37 -38 0
1 2 3 4 5 6 -7 8 9 10 -11 12 -13 -14 -15 -16 17 -18 19 20 21 22 -23 -24 -25 -26 -27 28 29 30 -31 32 -33 34 35 -36 -37 38 0
1 2 -3 -4 -5 6 7 8 9 -10 -11 12 -13 -14 15 16 17 -18 19 20 21 -22 -23 -24 -25 -26 27 28 29 30 -31 32 33 -34 35 36 37 38 0
1 -2 -3 4 5 -6 7 8 -9 -10 11 12 -13 14 15 -16 -17 18 -19 20 -21 22 23 24 25 -26 27 -28 29 -30 31 -32 33 34 35 36 37 38 0
1 2 -3 -4 -5 6 7 8 -9 10 -11 12 -13 14 15 -16 17 18 -19 20 -21 22 -23 -24 25 26 -27 28 -29 30 -31 32 -33 34 35 36 37 -38 0
1 2 -3 -4 -5 6 7 -8 9 10 -11 -12 13 -14 -15 16 17 18 -19 20 21 -22 -23 24 -25 26 -27 28 29 -30 31 32 33 34 35 36 37 38 0
1 2 -3 -4 -5 6 7 -8 9 -10 -11 12 13 14 15 -16 17 -18 -19 20 -21 22 23 -24 25 -26 -27 28 29 30 31 32 -33 -34 35 -36 37 38 0
1 -2 -3 4 5 -6 7 8 -9 -10 11 12 -13 14 15 -16 -17 18 -19 20 21 -22 23 24 25 26 27 -28 29 30 31 32 -33 -34 -35 36 37 -38 0
1 2 -3 -4 -5 6 7 -8 9 -10 -11 12 13 14 -15 16 17 -18 -19 20 -21 22 23 -24 25 -26 -27 28 29 30 31 32 -33 -34 35 -36 37 38 0
1 2 -3 -4 -5 6 7 8 -9 10 -11 -12 13 -14 15 16 17 18 19 -20 -21 -22 -23 24 25 26 27 28 29 30 -31 -32 33 -34 35 36 37 38 0
1 2 -3 -4 5 -6 7 8 -9 -10 11 12 -13 14 15 -16 -17 18 -19 20 -21 22 23 -24 25 26 -27 28 -29 30 -31 32 -33 34 35 36 37 -38 0
1 2 -3 -4 -5 6 7 -8 9 10 -11 12 13 -14 -15 16 17 18 -19 20 21 22 23 24 -25 26 -27 28 -29 30 -31 -32 33 34 35 -36 -37 38 0
1 2 -3 -4 -5 6 7 -8 9 -10 -11 12 13 14 -15 16 17 -18 -19 20 -21 22 23 -24 25 -26 -27 28 29 30 -31 32 -33 34 35 36 37 -38 0
1 2 -3 -4 -5 6 7 8 -9 10 -11 -12 -13 14 15 -16 17 18 -19 20 -21 22 23 24 -25 26 27 28 29 30 31 -32 33 -34 35 36 -37 38 0
1 2 -3 -4 -5 6 7 8 -9 10 -11 12 -13 14 15 -16 -17 18 -19 20 -21 22 23 -24 25 -26 -27 28 29 30 -31 32 -33 34 35 36 37 38 0
1 -2 -3 4 5 -6 7 8 9 10 11 -12 -13 -14 -15 -16 17 -18 19 20 21 22 -23 24 -25 26 -27 28 -29 30 -31 32 -33 34 35 36 37 -38 0
1 2 -3 -4 -5 6 7 8 -9 10 -11 12 -13 14 15 -16 17 -18 19 20 21 -22 -23 -24 -25 -26 27 28 29 30 -31 32 33 -34 35 36 37 38 0
1 2 -3 -4 -5 6 7 8 -9 10 -11 12 -13 14 15 -16 17 18 -19 20 -21 22 23 -24 25 26 -27 -28 -29 30 -31 32 -33 34 35 36 37 -38 0
1 2 -3 -4 -5 6 7 -8 9 -10 11 -12 13 14 15 -16 17 18 -19 -20 21 -22 23 24 25 -26 27 -28 29 -30 31 32 -33 34 35 36 37 -38 0
1 2 -3 -4 -5 6 7 -8 9 10 -11 12 13 -14 15 -16 17 18 -19 20 21 -22 -23 24 -25 -26 27 28 29 30 -31 32 -33 34 35 36 37 -38 0
1 2 -3 -4 -5 6 7 -8 9 10 -11 12 13 -14 -15 -16 17 18 -19 20 21 22 23 24 -25 -26 -27 28 29 30 -31 32 -33 34 35 36 37 -38 0
1 2 -3 -4 -5 6 7 -8 9 10 -11 12 13 -14 -15 -16 17 18 -19 20 21 22 -23 24 -25 26 -27 28 29 30 31 -32 33 34 35 36 -37 38 0
1 2 -3 -4 -5 6 7 -8 9 10 -11 12 13 -14 -15 -16 17 18 -19 20 21 22 -23 24 -25 26 -27 28 -29 30 -31 32 -33 34 35 36 37 38 0
1 2 -3 -4 -5 6 7 -8 9 10 -11 12 13 -14 -15 -16 17 18 -19 20 21 22 -23 24 -25 -26 -27 28 29 30 -31 32 33 34 35 36 37 38 0
1 2 -3 -4 5 -6 7 8 9 10 11 12 -13 -14 -15 -16 -17 -18 19 20 21 22 23 -24 -25 -26 -27 28 29 30 -31 32 -33 34 35 36 37 -38 0
1 2 -3 -4 -5 6 7 -8 9 10 -11 12 13 -14 -15 -16 17 18 -19 20 21 22 23 24 -25 26 -27 -28 -29 30 -31 32 -33 34 35 36 37 38 0
1 2 -3 -4 -5 6 7 -8 9 10 -11 12 13 -14 -15 -16 17 18 -19 20 21 22 23 24 -25 -26 -27 -28 29 30 -31 32 33 34 35 36 37 38 0
1 2 -3 -4 5 -6 7 8 9 10 11 12 -13 -14 -15 -16 -17 -18 19 20 21 22 23 -24 -25 -26 -27 -28 29 30 -31 32 33 34 35 36 37 38 0
1 2 -3 -4 5 -6 7 8 9 10 11 12 -13 -14 -15 -16 -17 -18 19 20 21 22 23 -24 -25 -26 -27 28 29 30 -31 32 33 34 -35 36 37 38 0
1 2 -3 -4 5 -6 7 8 9 10 11 12 -13 -14 -15 -16 -17 -18 19 20 21 22 23 24 -25 26 -27 -28 -29 30 -31 32 -33 34 35 36 37 -38 0
1 2 -3 -4 5 -6 7 8 9 10 11 -12 -13 -14 -15 -16 17 -18 19 20 21 22 -23 24 -25 26 -27 28 -29 30 -31 32 -33 34 35 36 37 -38 0
1 2 3 4 5 6 7 -8 9 -10 -11 12 13 14 -15 -16 17 -18 -19 20 21 22 23 24 -25 -26 -27 -28 29 30 31 32 -33 -34 -35 36 37 -38 0
1 2 -3 -4 -5 6 7 8 9 -10 11 -12 13 14 -15 16 -17 18 19 -20 -21 22 23 24 25 -26 27 -28 29 -30 31 -32 33 34 35 36 37 -38 0
1 2 -3 -4 -5 6 7 -8 9 10 -11 -12 13 -14 15 -16 17 18 -19 -20 21 -22 23 24 25 -26 27 28 -29 30 31 32 33 34 35 36 -37 38 0
1 2 -3 -4 -5 6 7 -8 9 10 -11 -12 13 -14 15 -16 17 18 -19 -20 21 22 23 24 25 -26 27 28 -29 30 -31 32 -33 34 35 36 37 -38 0
1 2 -3 -4 -5 6 7 8 9 -10 -11 12 13 14 -15 16 17 18 19 20 21 -22 23 -24 -25 -26 -27 28 29 30 31 32 -33 -34 -35 36 37 -38 0
1 2 -3 -4 -5 6 7 -8 9 10 -11 -12 13 -14 15 -16 17 18 -19 -20 21 22 23 24 25 -26 27 28 -29 30 -31 32 33 -34 35 36 37 38 0
1 2 -3 -4 5 -6 7 8 -9 -10 11 12 -13 14 15 -16 -17 -18 19 20 -21 22 23 -24 -25 26 -27 28 29 30 -31 32 -33 34 35 36 37 38 0
1 2 -3 -4 -5 6 7 -8 9 -10 -11 -12 13 14 15 16 17 -18 -19 20 -21 -22 23 -24 25 -26 27 28 29 -30 31 32 33 34 35 36 37 -38 0
1 2 -3 -4 -5 6 7 8 -9 10 -11 -12 13 -14 15 16 17 18 19 -20 -21 22 -23 24 25 -26 27 -28 29 -30 31 32 -33 34 35 36 37 38 0
1 2 -3 -4 -5 6 7 8 9 -10 -11 12 -13 -14 15 16 17 -18 19 20 21 -22 -23 -24 -25 26 -27 28 29 30 -31 32 -33 34 35 36 37 38 0
1 2 -3 -4 -5 6 7 8 9 -10 -11 -12 -13 -14 15 16 17 18 -19 20 21 -22 -23 24 25 -26 -27 28 29 30 31 32 33 34 35 36 37 -38 0
1 2 -3 -4 -5 6 7 -8 9 -10 11 -12 13 14 15 -16 17 18 -19 -20 21 -22 23 24 25 -26 27 -28 29 -30 31 32 -33 34 35 36 37 38 0
1 -2 -3 4 5 -6 7 8 -9 -10 11 12 -13 14 15 -16 -17 -18 19 20 -21 22 23 -24 -25 26 -27 28 29 30 -31 32 -33 34 35 36 37 38 0
1 2 -3 -4 -5 6 7 -8 9 -10 -11 12 13 14 15 -16 17 -18 -19 -20 -21 22 23 24 25 26 27 28 -29 -30 31 32 33 -34 35 -36 37 38 0
1 2 -3 -4 -5 6 7 8 9 -10 -11 12 13 14 -15 16 17 18 19 20 21 -22 23 -24 -25 -26 -27 28 29 30 31 -32 33 -34 35 36 -37 38 0
1 2 3 4 5 6 7 -8 9 -10 -11 12 13 14 -15 16 17 -18 -19 20 21 -22 -23 24 -25 -26 27 28 29 30 -31 -32 -33 34 35 -36 -37 38 0
1 2 -3 -4 -5 6 7 -8 9 10 -11 12 13 14 -15 -16 17 -18 -19 -20 21 22 -23 24 25 26 -27 28 29 30 31 -32 33 34 35 36 -37 38 0
1 2 -3 -4 5 -6 7 8 9 10 11 -12 -13 -14 -15 -16 17 18 -19 20 21 -22 23 24 25 26 27 28 29 30 -31 32 33 -34 -35 36 37 -38 0
1 2 -3 -4 -5 6 7 -8 9 -10 11 -12 13 14 -15 16 -17 -18 -19 -20 21 22 23 24 25 26 27 28 29 30 31 -32 33 -34 35 36 -37 38 0
1 2 -3 -4 -5 6 7 -8 9 -10 -11 -12 13 14 15 16 17 -18 -19 -20 -21 -22 23 24 25 26 -27 28 29 -30 31 32 33 34 35 36 37 38 0
1 2 -3 -4 -5 6 7 -8 9 -10 11 -12 13 14 -15 16 -17 18 -19 -20 21 22 23 24 25 26 27 28 29 30 -31 32 33 -34 -35 36 37 -38 0
1 2 -3 -4 -5 6 7 8 9 -10 -11 -12 -13 -14 15 16 17 -18 19 20 -21 22 -23 -24 25 -26 27 -28 -29 30 31 32 33 34 35 36 37 38 0
1 2 -3 -4 -5 6 7 8 -9 10 -11 -12 -13 14 15 -16 17 -18 19 20 21 -22 23 24 25 26 27 -28 29 30 31 32 -33 -34 -35 36 37 -38 0
1 -2 -3 4 5 -6 7 8 -9 -10 11 12 -13 14 15 16 17 18 -19 20 21 22 23 -24 25 -26 -27 28 -29 30 -31 -32 33 34 35 -36 -37 38 0
1 2 -3 -4 -5 6 7 8 -9 10 -11 -12 13 -14 15 16 17 -18 -19 20 -21 22 -23 24 25 -26 27 -28 -29 30 31 32 33 34 35 36 37 -38 0
1 2 -3 -4 -5 6 7 -8 9 -10 -11 -12 13 14 15 16 17 -18 -19 -20 -21 22 -23 24 25 -26 27 -28 29 30 31 32 33 34 35 36 37 38 0
1 2 -3 -4 -5 6 7 -8 9 -10 -11 -12 13 14 15 16 17 18 -19 -20 21 -22 -23 24 -25 26 -27 28 29 30 31 32 33 34 35 36 37 -38 0
1 -2 -3 4 5 -6 7 8 -9 -10 11 12 -13 14 15 -16 -17 18 -19 20 -21 22 23 -24 25 26 -27 28 -29 30 -31 32 -33 34 35 36 37 38 0
1 2 -3 -4 -5 6 7 -8 9 -10 -11 -12 13 14 15 16 17 18 -19 -20 -21 -22 23 24 25 26 -27 28 29 -30 31 32 33 34 35 36 37 -38 0
1 2 -3 -4 -5 6 7 8 9 -10 -11 12 -13 -14 15 16 17 -18 19 20 21 -22 -23 -24 -25 -26 27 28 29 30 -31 32 -33 34 35 36 37 38 0
1 2 -3 -4 -5 6 7 8 9 -10 -11 12 13 14 -15 16 17 18 19 20 21 -22 23 -24 -25 -26 27 28 29 30 -31 -32 -33 34 35 -36 -37 38 0
1 2 -3 -4 -5 6 7 8 9 -10 -11 12 13 14 -15 16 17 18 19 20 21 -22 -23 -24 -25 -26 27 28 29 30 -31 -32 33 -34 35 36 37 38 0
1 2 -3 -4 -5 6 7 8 9 -10 -11 12 13 14 -15 16 17 18 19 20 21 -22 -23 -24 -25 -26 27 28 29 30 -31 32 33 -34 35 36 -37 38 0
1 2 -3 -4 -5 6 7 -8 9 10 -11 12 13 -14 -15 -16 17 18 -19 20 21 22 -23 24 -25 26 -27 28 29 30 31 -32 33 34 35 36 37 -38 0
1 2 -3 -4 -5 6 7 8 -9 10 -11 12 -13 14 15 -16 -17 18 -19 20 -21 22 23 -24 25 26 -27 28 -29 30 -31 32 -33 34 35 36 37 38 0
1 2 -3 -4 5 -6 7 8 9 10 11 12 -13 -14 -15 -16 -17 -18 19 20 21 22 23 -24 -25 -26 -27 28 29 30 -31 32 33 34 35 36 37 -38 0
1 2 -3 -4 5 -6 7 8 -9 -10 11 12 -13 14 15 16 17 18 -19 20 21 22 23 -24 25 -26 -27 28 -29 30 -31 -32 33 34 35 -36 -37 38 0
1 2 -3 -4 -5 6 7 -8 9 -10 -11 12 13 -14 15 16 17 18 -19 20 21 -22 -23 24 -25 -26 27 28 29 30 -31 32 -33 34 35 36 37 38 0
1 2 -3 -4 -5 6 7 -8 9 -10 -11 -12 13 14 15 16 17 18 -19 -20 -21 22 -23 24 25 -26 27 -28 -29 30 31 32 33 34 35 36 37 38 0
1 2 -3 -4 -5 6 7 8 9 -10 -11 12 13 14 -15 16 17 18 19 20 21 -22 -23 -24 -25 -26 27 28 29 30 -31 32 -33 34 35 -36 -37 38 0
1 2 -3 -4 -5 6 7 -8 9 -10 -11 -12 13 14 15 16 17 18 -19 -20 -21 22 -23 24 25 -26 27 -28 29 30 31 32 33 34 35 36 37 -38 0
1 -2 -3 4 5 -6 7 8 9 10 11 -12 -13 -14 -15 -16 17 -18 19 20 21 22 -23 24 -25 26 -27 28 -29 30 -31 32 -33 34 35 36 37 38 0
1 2 3 4 5 6 -7 8 9 10 -11 12 -13 -14 -15 -16 17 -18 19 20 21 22 23 -24 -25 -26 -27 -28 29 30 31 32 33 -34 -35 36 37 -38 0
1 2 3 4 5 6 7 8 9 10 -11 12 -13 -14 -15 -16 -17 -18 19 20 21 22 23 -24 -25 -26 -27 -28 29 30 31 32 33 -34 -35 36 37 -38 0
1 2 -3 -4 -5 6 7 -8 9 -10 -11 12 13 14 15 16 17 18 -19 -20 21 -22 -23 24 -25 26 -27 28 29 30 31 -32 33 34 35 36 37 -38 0
1 2 -3 -4 -5 6 7 8 -9 10 -11 12 -13 14 15 -16 17 -18 19 20 21 -22 -23 -24 -25 -26 27 28 29 30 -31 32 -33 34 35 36 37 38 0
1 -2 -3 4 5 -6 7 8 -9 -10 11 12 -13 14 15 -16 -17 18 -19 20 21 -22 23 24 25 26 27 28 29 30 -31 32 33 -34 -35 36 37 -38 0
1 2 -3 -4 -5 6 7 8 -9 10 -11 12 -13 14 15 -16 17 -18 19 20 21 -22 -23 24 25 26 27 28 29 30 -31 -32 -33 34 35 -36 -37 38 0
1 2 -3 -4 -5 6 7 -8 9 -10 -11 12 13 14 15 16 17 -18 -19 -20 -21 -22 23 24 25 26 -27 28 29 -30 31 32 33 34 35 36 -37 38 0
1 2 3 4 5 6 -7 8 9 10 -11 12 -13 -14 -15 -16 17 -18 19 20 21 22 -23 24 -25 26 -27 28 -29 30 -31 32 33 -34 -35 36 37 -38 0
1 2 -3 -4 -5 6 7 -8 9 10 -11 12 13 14 -15 -16 17 -18 -19 20 -21 22 23 -24 25 -26 27 28 29 -30 -31 32 33 34 35 36 37 -38 0
1 2 -3 -4 5 -6 7 8 9 10 11 -12 -13 -14 -15 -16 17 -18 19 20 21 22 -23 24 -25 26 -27 28 -29 30 -31 32 -33 34 35 36 37 38 0
1 2 -3 -4 -5 6 7 -8 9 10 -11 12 13 -14 -15 -16 17 18 -19 20 21 22 23 24 -25 -26 -27 28 29 30 -31 32 -33 34 35 36 37 38 0
1 2 -3 -4 -5 6 7 -8 9 -10 -11 12 13 14 -15 16 17 -18 -19 20 -21 22 23 -24 25 -26 -27 28 29 30 -31 32 -33 34 35 36 37 38 0
1 2 3 4 5 6 -7 8 9 10 -11 12 -13 -14 -15 -16 17 -18 19 20 21 22 -23 24 -25 26 -27 28 -29 30 -31 -32 33 34 35 -36 -37 38 0
1 2 -3 -4 -5 6 7 -8 9 -10 -11 12 13 14 15 -16 17 -18 -19 20 -21 22 23 -24 25 -26 -27 28 29 30 -31 32 -33 34 35 36 37 38 0
1 2 -3 -4 -5 6 7 8 9 -10 11 -12 13 14 -15 16 -17 18 19 -20 -21 22 23 -24 25 26 -27 -28 -29 30 -31 32 -33 34 35 36 37 38 0
1 2 -3 -4 5 -6 7 8 9 10 11 12 13 14 15 -16 17 18 19 -20 -21 -22 -23 -24 25 26 27 28 -29 -30 -31 -32 33 34 35 -36 -37 38 0
1 2 -3 -4 5 -6 7 8 -9 -10 11 12 -13 14 15 -16 -17 18 -19 20 -21 22 23 -24 25 26 -27 28 -29 30 -31 32 -33 34 35 36 37 38 0
1 2 -3 -4 -5 6 7 8 -9 10 -11 12 -13 14 15 -16 17 18 -19 20 -21 22 -23 -24 25 26 -27 28 -29 30 -31 32 -33 34 35 36 37 38 0
1 2 3 4 5 6 7 -8 9 -10 -11 12 13 -14 15 -16 -17 18 -19 20 21 22 23 24 -25 -26 -27 -28 29 30 31 32 33 -34 -35 36 37 -38 0
1 2 -3 -4 -5 6 7 -8 9 -10 -11 12 13 14 -15 16 17 -18 -19 20 -21 22 23 24 -25 26 27 28 29 30 31 -32 33 -34 35 36 -37 38 0
1 2 -3 -4 -5 6 7 8 -9 10 -11 12 -13 14 15 -16 17 18 -19 20 -21 22 23 -24 25 -26 -27 28 29 30 31 32 -33 -34 35 -36 37 38 0
1 2 -3 -4 -5 6 7 -8 9 10 -11 12 13 -14 -15 16 17 18 -19 20 21 -22 -23 24 -25 -26 27 28 29 30 -31 32 -33 34 35 36 37 38 0
1 -2 -3 4 5 -6 7 8 9 10 11 -12 -13 -14 -15 -16 17 18 -19 20 21 -22 23 24 25 26 27 28 29 30 -31 32 33 -34 -35 36 37 -38 0
1 2 -3 -4 -5 6 7 -8 9 10 -11 12 13 -14 -15 16 17 18 -19 20 21 -22 -23 24 -25 26 -27 28 29 -30 31 32 33 34 35 36 37 -38 0
1 2 -3 -4 -5 6 7 -8 9 10 -11 -12 13 -14 -15 16 17 18 -19 20 21 -22 23 24 -25 26 -27 28 29 -30 31 32 33 34 35 36 37 -38 0
1 2 -3 -4 -5 6 7 8 9 -10 -11 12 -13 -14 15 16 17 -18 19 20 21 -22 -23 -24 -25 26 -27 28 29 -30 31 32 33 34 35 36 37 -38 0
1 2 -3 -4 -5 6 7 -8 9 10 -11 12 13 -14 15 -16 17 18 -19 20 21 -22 -23 24 -25 -26 27 28 29 30 -31 32 -33 34 35 36 37 38 0
1 2 -3 -4 5 -6 7 8 9 10 11 12 -13 -14 -15 -16 -17 18 -19 20 21 22 23 24 25 26 -27 -28 29 -30 31 32 33 -34 35 -36 37 38 0
1 2 -3 -4 -5 6 7 -8 9 10 -11 12 13 -14 -15 16 17 18 -19 20 21 22 23 24 -25 -26 27 28 29 30 -31 32 33 -34 -35 36 37 -38 0
1 2 -3 -4 -5 6 7 -8 9 10 -11 12 13 -14 -15 -16 17 18 -19 20 21 22 23 24 -25 -26 -27 28 29 30 -31 32 33 34 35 36 37 -38 0
1 2 -3 -4 5 -6 7 8 9 10 11 12 -13 -14 -15 -16 -17 -18 19 20 21 22 23 -24 -25 -26 -27 28 29 30 -31 32 -33 34 35 36 37 38 0
1 2 -3 -4 5 -6 7 8 -9 -10 11 12 -13 14 15 -16 -17 18 -19 20 21 -22 23 24 25 26 27 28 29 30 -31 32 33 -34 -35 36 37 -38 0
1 2 -3 -4 -5 6 7 8 -9 10 -11 12 -13 14 15 -16 17 18 -19 20 -21 22 23 -24 25 26 -27 -28 -29 30 -31 32 -33 34 35 36 37 38 0
1 2 -3 -4 5 -6 7 8 9 10 11 12 -13 -14 -15 -16 -17 18 -19 20 21 -22 23 24 25 26 27 28 29 30 -31 32 33 -34 -35 36 37 -38 0
1 2 -3 -4 -5 6 7 8 -9 10 -11 12 -13 14 15 -16 17 18 -19 20 -21 22 23 -24 25 -26 -27 28 29 30 -31 32 -33 34 35 36 37 -38 0
1 2 -3 -4 -5 6 7 8 -9 10 -11 12 -13 14 15 -16 17 18 -19 20 -21 22 -23 -24 25 -26 27 28 29 -30 31 32 33 34 35 36 -37 38 0
1 2 -3 -4 5 -6 7 8 9 10 11 12 -13 -14 -15 -16 -17 -18 19 20 21 22 23 24 -25 26 -27 -28 -29 30 -31 32 -33 34 35 36 37 38 0
1 2 -3 -4 -5 6 7 8 -9 10 -11 -12 13 -14 15 16 17 18 19 -20 21 -22 -23 24 25 -26 -27 28 29 30 31 32 33 34 35 36 -37 38 0
1 2 3 4 5 6 7 -8 9 -10 -11 12 13 14 -15 16 17 -18 -19 20 -21 22 23 -24 25 -26 27 -28 29 -30 31 -32 -33 34 35 -36 -37 38 0
1 2 -3 -4 -5 6 7 -8 9 -10 -11 12 13 14 15 16 17 -18 -19 -20 -21 -22 23 24 25 26 -27 28 29 -30 31 32 33 34 35 36 37 -38 0
1 2 3 4 5 6 7 8 9 10 -11 12 -13 -14 -15 -16 -17 -18 19 20 21 22 23 -24 -25 -26 -27 -28 29 30 31 32 -33 -34 35 -36 37 38 0
1 2 -3 -4 -5 6 7 -8 9 -10 -11 -12 13 14 15 16 17 18 -19 -20 -21 22 -23 24 25 -26 27 -28 29 30 31 32 33 34 35 36 37 38 0
1 2 3 4 5 6 7 -8 9 -10 -11 12 13 14 -15 16 17 -18 -19 20 21 -22 -23 24 -25 -26 27 28 29 30 -31 32 33 -34 -35 36 37 -38 0
1 2 -3 -4 -5 6 7 -8 9 -10 -11 -12 13 14 15 16 17 18 -19 -20 -21 -22 23 24 25 26 -27 28 29 -30 31 32 33 34 35 36 37 38 0
1 2 -3 -4 -5 6 7 -8 9 -10 -11 12 13 14 15 16 17 18 -19 -20 -21 -22 23 24 25 26 -27 28 29 -30 31 32 33 34 35 36 -37 38 0
1 2 -3 -4 -5 6 7 8 9 -10 11 -12 13 14 -15 16 -17 18 19 -20 -21 22 23 24 25 26 -27 -28 29 30 -31 32 33 34 -35 36 37 38 0
1 2 -3 -4 -5 6 7 8 -9 10 -11 -12 13 -14 15 16 17 -18 -19 20 -21 22 -23 24 25 -26 27 -28 -29 30 31 32 33 34 35 36 37 38 0
1 2 -3 -4 5 -6 7 8 9 10 11 12 -13 -14 -15 -16 -17 -18 19 20 21 22 23 -24 -25 -26 -27 28 29 30 -31 32 33 34 35 36 37 38 0
1 2 -3 -4 -5 6 7 -8 9 10 -11 -12 13 -14 15 -16 17 18 -19 20 21 -22 23 24 -25 -26 27 28 29 30 31 32 33 34 35 36 -37 38 0
1 2 -3 -4 -5 6 7 -8 9 10 -11 12 13 14 -15 -16 17 -18 -19 20 -21 22 23 -24 25 -26 27 28 29 -30 -31 32 33 34 35 36 37 38 0
1 2 -3 -4 5 -6 7 8 9 10 11 12 13 14 15 -16 17 18 19 -20 -21 -22 -23 -24 25 26 27 28 -29 -30 -31 -32 33 34 35 36 -37 38 0
1 2 -3 -4 -5 6 7 -8 9 10 -11 12 13 -14 -15 16 17 18 -19 20 21 -22 -23 24 -25 26 -27 28 29 -30 31 32 33 34 35 36 37 38 0
1 2 -3 -4 -5 6 7 -8 9 -10 -11 12 13 14 15 16 17 18 -19 -20 21 -22 -23 24 -25 26 -27 28 29 30 31 32 33 34 35 36 -37 38 0
1 2 -3 -4 5 -6 7 8 9 10 11 -12 -13 -14 -15 -16 17 -18 19 20 21 -22 23 -24 -25 -26 27 28 29 30 31 32 33 34 35 36 -37 38 0
1 2 3 4 5 6 -7 8 9 10 -11 12 -13 -14 -15 -16 17 -18 19 20 21 22 23 24 -25 26 -27 -28 -29 30 -31 32 33 -34 35 36 -37 38 0
1 2 3 4 5 6 7 8 -9 -10 11 12 -13 14 15 -16 17 18 -19 20 21 -22 -23 24 -25 -26 27 28 29 30 -31 -32 -33 34 35 -36 -37 38 0
1 2 3 4 5 6 -7 8 9 10 -11 12 13 14 -15 16 -17 -18 -19 -20 -21 22 23 24 25 26 -27 -28 29 -30 31 32 33 -34 -35 36 37 -38 0
1 -2 -3 4 5 -6 7 8 9 10 11 -12 -13 -14 -15 -16 17 18 -19 20 21 22 -23 24 25 26 -27 28 29 30 31 -32 33 34 35 36 -37 38 0
1 2 -3 -4 -5 6 7 -8 9 -10 -11 12 13 14 15 16 17 18 -19 -20 21 -22 -23 24 -25 26 -27 28 29 30 31 -32 33 34 35 36 37 38 0
1 -2 -3 4 5 -6 7 8 9 10 11 -12 -13 -14 -15 -16 17 18 -19 20 21 22 -23 24 25 26 -27 28 29 30 -31 32 33 34 -35 36 37 38 0
1 2 -3 -4 -5 6 7 -8 9 10 -11 12 13 -14 15 -16 17 18 -19 20 -21 22 -23 24 25 -26 27 28 29 -30 31 32 33 34 35 36 -37 38 0
1 2 3 4 5 6 7 -8 9 -10 -11 12 13 -14 15 -16 17 18 -19 20 21 22 -23 24 -25 -26 -27 28 29 30 -31 32 -33 34 35 -36 -37 38 0
1 2 3 4 5 6 7 -8 9 -10 -11 12 13 14 -15 -16 17 -18 -19 20 21 22 23 24 -25 -26 -27 -28 29 30 31 32 33 -34 -35 36 37 -38 0
1 2 -3 -4 -5 6 7 -8 9 10 -11 -12 13 -14 -15 16 17 18 -19 20 21 -22 23 24 25 -26 -27 28 29 30 31 32 33 34 35 36 -37 38 0
1 -2 -3 4 5 -6 7 8 -9 -10 11 -12 -13 14 15 -16 17 18 -19 20 21 -22 23 24 -25 -26 27 28 29 30 31 32 33 34 35 36 -37 38 0
1 2 3 4 5 6 7 8 9 10 -11 12 -13 -14 -15 -16 17 -18 19 20 21 22 -23 -24 -25 -26 -27 28 29 30 31 -32 33 -34 35 36 -37 38 0
1 2 -3 -4 -5 6 7 8 9 -10 -11 -12 -13 -14 15 16 17 18 -19 20 21 -22 23 24 25 -26 -27 28 29 30 31 32 33 34 35 36 -37 38 0
1 2 3 4 5 6 -7 8 9 10 -11 12 -13 -14 -15 -16 17 -18 19 20 21 22 -23 -24 -25 -26 -27 28 29 30 -31 32 -33 34 35 36 37 -38 0
1 2 3 4 5 6 7 -8 9 -10 -11 12 13 -14 15 -16 17 18 -19 20 21 22 23 24 -25 -26 -27 -28 29 30 31 32 -33 -34 -35 36 37 -38 0
1 2 -3 -4 -5 6 7 -8 9 -10 11 -12 13 14 -15 16 -17 -18 -19 20 -21 22 23 24 25 -26 27 28 -29 30 31 32 33 34 35 36 -37 38 0
1 2 3 4 5 6 7 -8 9 -10 -11 12 13 -14 15 -16 17 18 -19 20 21 22 -23 24 -25 -26 -27 28 29 30 31 -32 33 -34 35 36 -37 38 0
1 2 -3 -4 5 -6 7 8 -9 -10 11 12 -13 14 15 -16 -17 18 -19 20 21 -22 23 24 -25 -26 27 28 29 30 31 32 33 34 35 36 -37 38 0
1 -2 -3 4 5 -6 7 8 -9 -10 11 12 -13 14 15 -16 -17 -18 19 20 -21 22 23 24 25 26 -27 28 29 -30 -31 32 33 34 35 36 37 -38 0
1 2 -3 -4 -5 6 7 8 -9 10 -11 -12 -13 14 15 -16 17 18 -19 20 -21 22 23 24 -25 26 27 28 29 30 31 -32 33 34 -35 36 37 38 0
1 2 -3 -4 5 -6 7 8 9 10 11 12 -13 -14 -15 -16 -17 -18 19 20 21 22 23 24 -25 26 27 -28 -29 30 31 -32 33 34 35 36 -37 38 0
1 2 3 4 5 6 7 8 9 10 -11 12 -13 -14 -15 -16 17 -18 19 20 21 22 23 -24 -25 -26 -27 -28 29 30 31 32 -33 -34 -35 36 37 -38 0
1 2 -3 -4 -5 6 7 -8 9 -10 -11 -12 13 14 15 16 17 -18 -19 20 -21 -22 23 -24 25 -26 27 28 29 -30 31 32 33 34 35 36 37 38 0
1 2 -3 -4 -5 6 7 8 9 -10 -11 -12 -13 -14 15 16 17 18 -19 20 21 -22 -23 24 25 -26 -27 28 29 30 31 32 33 34 35 36 37 38 0
1 2 -3 -4 -5 6 7 8 -9 10 -11 -12 -13 14 15 -16 17 -18 19 20 21 -22 23 -24 -25 -26 27 28 29 30 31 32 33 34 35 36 -37 38 0
1 2 -3 -4 -5 6 7 8 9 -10 11 -12 -13 -14 15 -16 17 -18 19 20 21 -22 23 -24 -25 -26 27 28 29 30 31 32 33 34 35 36 -37 38 0
1 2 -3 -4 -5 6 7 8 9 -10 -11 12 13 14 -15 16 17 18 19 20 21 -22 -23 24 25 26 27 28 -29 -30 -31 -32 33 34 35 -36 -37 38 0
1 2 -3 -4 -5 6 7 -8 9 10 -11 12 13 14 -15 -16 17 -18 -19 -20 21 22 -23 24 25 -26 27 28 -29 30 31 32 33 34 35 36 -37 38 0
1 2 3 4 5 6 -7 8 9 10 -11 12 -13 -14 -15 -16 17 -18 19 20 21 22 23 -24 -25 -26 -27 -28 29 30 31 32 -33 -34 35 -36 37 38 0
1 2 -3 -4 5 -6 7 8 9 10 11 12 -13 -14 -15 -16 -17 18 -19 20 21 22 23 24 25 26 -27 -28 29 -30 31 32 33 -34 35 36 37 38 0
1 2 -3 -4 -5 6 7 -8 9 10 -11 -12 13 -14 -15 16 17 18 -19 20 21 -22 23 24 -25 -26 27 28 29 30 31 32 33 34 35 36 -37 38 0
1 2 -3 -4 -5 6 7 -8 9 -10 -11 12 13 14 15 16 17 -18 -19 20 -21 -22 23 -24 25 -26 27 28 29 -30 31 32 33 34 35 36 -37 38 0
1 2 3 4 5 6 7 8 9 10 -11 12 -13 -14 -15 -16 17 -18 19 20 21 22 -23 -24 -25 -26 -27 28 29 30 -31 32 -33 34 35 -36 -37 38 0
1 2 -3 -4 -5 6 7 -8 9 10 -11 12 13 -14 -15 16 17 18 -19 20 21 22 23 24 -25 -26 27 28 29 30 -31 32 -33 34 35 -36 -37 38 0
1 2 3 4 5 6 7 -8 9 -10 11 12 13 -14 15 -16 17 18 -19 20 21 -22 -23 24 -25 -26 27 28 29 30 -31 -32 -33 34 35 -36 -37 38 0
1 2 -3 -4 -5 6 7 8 9 -10 -11 12 -13 -14 15 16 17 -18 19 20 21 -22 -23 -24 -25 26 -27 28 29 -30 31 32 33 34 35 36 37 38 0
1 2 -3 -4 -5 6 7 8 9 -10 -11 12 13 14 -15 16 17 18 19 20 21 -22 23 -24 -25 -26 -27 28 29 30 31 32 33 -34 -35 36 37 -38 0
1 2 -3 -4 -5 6 7 8 9 -10 11 -12 13 14 -15 16 -17 -18 -19 -20 21 22 23 24 25 26 27 28 29 30 -31 32 33 -34 -35 36 37 -38 0
1 2 3 4 5 6 7 -8 9 -10 -11 12 13 -14 15 -16 -17 18 -19 20 21 22 23 24 -25 -26 -27 28 29 30 -31 32 -33 34 35 -36 -37 38 0
1 2 3 4 5 6 -7 8 9 10 -11 12 -13 -14 -15 -16 17 -18 19 20 21 22 -23 -24 -25 -26 -27 28 29 30 -31 32 33 34 -35 36 37 38 0
1 -2 -3 4 5 -6 7 8 -9 -10 11 12 -13 14 15 -16 -17 18 -19 20 21 -22 23 24 -25 -26 27 28 29 30 31 32 33 34 35 36 -37 38 0
1 2 -3 -4 -5 6 7 -8 9 -10 11 -12 13 14 15 -16 17 -18 -19 -20 21 -22 23 24 25 -26 27 28 -29 30 31 32 33 34 35 36 -37 38 0
1 2 -3 -4 -5 6 7 8 -9 10 -11 12 -13 14 15 -16 17 18 -19 20 -21 22 -23 -24 25 -26 27 28 29 -30 31 32 33 34 35 36 37 -38 0
1 2 -3 -4 -5 6 7 8 -9 10 -11 -12 13 -14 15 -16 17 18 19 -20 -21 22 23 24 25 26 27 28 29 30 31 -32 33 -34 35 36 -37 38 0
1 2 -3 -4 5 -6 7 8 -9 -10 11 12 -13 14 15 -16 -17 -18 19 20 -21 22 23 24 25 26 -27 28 29 -30 -31 32 33 34 35 36 37 -38 0
1 2 -3 -4 -5 6 7 -8 9 10 -11 12 13 14 -15 -16 17 -18 -19 -20 21 22 -23 24 25 26 -27 28 29 30 31 -32 33 34 35 36 37 -38 0
1 2 -3 -4 -5 6 7 -8 9 -10 11 -12 13 14 -15 16 -17 18 -19 -20 21 22 23 24 25 26 27 28 29 30 31 -32 33 -34 35 36 -37 38 0
1 2 -3 -4 -5 6 7 -8 9 -10 -11 -12 13 14 15 16 17 18 -19 -20 21 -22 -23 24 -25 26 -27 28 29 30 31 32 33 34 35 36 37 38 0
1 2 -3 -4 -5 6 7 8 9 -10 11 -12 13 14 -15 16 -17 18 19 -20 -21 22 23 24 25 -26 27 -28 29 -30 31 -32 33 34 35 36 37 38 0
1 2 -3 -4 5 -6 7 8 9 10 11 12 -13 -14 -15 -16 -17 18 -19 20 21 22 23 24 25 26 -27 -28 29 30 -31 32 33 34 -35 36 37 38 0
1 2 -3 -4 -5 6 7 8 -9 10 -11 12 -13 14 15 -16 17 18 -19 20 -21 22 -23 24 25 -26 27 28 29 -30 31 32 33 34 35 36 -37 38 0
1 2 -3 -4 -5 6 7 -8 9 -10 -11 12 13 14 15 -16 17 -18 -19 -20 -21 22 23 24 25 26 27 28 -29 -30 31 32 -33 34 35 36 37 -38 0
1 2 -3 -4 -5 6 7 -8 9 10 -11 -12 13 -14 15 -16 17 18 -19 -20 21 -22 23 24 25 -26 27 28 -29 30 31 32 33 34 35 36 37 -38 0
1 2 -3 -4 -5 6 7 -8 9 10 -11 12 13 14 -15 -16 17 18 -19 -20 21 22 -23 24 25 26 -27 28 29 30 31 -32 33 34 35 36 -37 38 0
1 2 -3 -4 -5 6 7 -8 9 -10 11 -12 13 -14 15 -16 17 18 -19 20 21 -22 23 24 -25 -26 27 28 29 30 31 32 33 34 35 36 -37 38 0
1 2 -3 -4 -5 6 7 -8 9 10 -11 12 13 -14 -15 16 17 18 -19 20 21 22 23 24 -25 -26 27 28 29 30 -31 32 33 -34 35 36 -37 38 0
1 2 -3 -4 -5 6 7 -8 9 10 -11 -12 13 -14 15 -16 17 18 -19 -20 21 22 23 24 25 -26 27 28 29 -30 31 32 33 34 35 36 -37 38 0
1 2 3 4 5 6 7 -8 9 -10 -11 12 13 -14 15 -16 -17 18 -19 20 21 22 23 24 -25 -26 -27 -28 29 30 31 32 -33 -34 35 -36 37 38 0
1 2 -3 -4 -5 6 7 -8 9 10 -11 -12 13 -14 15 -16 17 18 -19 -20 21 22 23 24 25 -26 27 28 -29 30 -31 32 -33 34 35 36 37 38 0
1 2 -3 -4 5 -6 7 8 9 10 11 -12 -13 -14 -15 -16 17 18 -19 20 21 22 -23 24 25 26 -27 28 29 30 -31 32 33 34 -35 36 37 38 0
1 -2 -3 4 5 -6 7 8 9 10 11 -12 -13 -14 -15 -16 17 -18 19 20 21 -22 23 -24 -25 -26 27 28 29 30 31 32 33 34 35 36 -37 38 0
1 2 -3 -4 -5 6 7 -8 9 10 -11 12 13 14 -15 -16 17 18 -19 -20 21 22 23 24 -25 26 27 28 29 30 31 -32 33 -34 35 36 -37 38 0
1 2 -3 -4 -5 6 7 8 9 -10 -11 12 -13 -14 15 16 17 18 -19 20 21 -22 -23 24 25 -26 -27 28 29 30 31 32 33 34 35 36 -37 38 0
1 2 -3 -4 -5 6 7 -8 9 10 -11 -12 13 -14 -15 16 17 18 -19 20 21 -22 23 24 -25 26 -27 28 29 -30 31 32 33 34 35 36 37 38 0
1 2 -3 -4 -5 6 7 -8 9 10 -11 12 13 -14 -15 -16 17 18 -19 20 21 22 23 24 -25 -26 -27 28 29 30 -31 32 33 34 35 36 37 38 0
1 2 -3 -4 -5 6 7 -8 9 -10 -11 12 13 14 15 -16 17 18 -19 -20 -21 22 23 24 25 26 27 28 -29 -30 31 32 33 -34 35 -36 37 38 0
1 2 3 4 5 6 7 8 9 10 -11 12 -13 -14 -15 -16 -17 -18 19 20 21 22 23 24 -25 26 -27 -28 -29 30 -31 32 33 -34 35 36 -37 38 0
1 2 -3 -4 -5 6 7 8 -9 10 -11 12 -13 14 15 -16 17 18 -19 20 -21 22 23 -24 25 -26 -27 28 29 30 -31 32 -33 34 35 36 37 38 0
1 2 -3 -4 -5 6 7 -8 9 -10 -11 12 13 14 15 -16 17 -18 -19 -20 -21 22 23 24 25 26 27 28 -29 -30 31 32 33 -34 35 36 37 38 0
1 2 -3 -4 -5 6 7 -8 9 10 -11 -12 13 -14 15 -16 17 18 -19 20 -21 22 23 24 -25 26 27 28 29 30 31 -32 33 34 -35 36 37 38 0
1 2 -3 -4 -5 6 7 -8 9 10 -11 12 13 -14 15 -16 17 18 -19 20 -21 22 23 24 -25 26 27 28 29 30 31 -32 33 -34 35 36 -37 38 0
1 2 -3 -4 5 -6 7 8 9 10 11 -12 -13 -14 -15 -16 17 18 -19 20 21 22 -23 24 25 26 -27 28 29 30 31 -32 33 34 35 36 -37 38 0
1 2 -3 -4 -5 6 7 -8 9 10 -11 -12 13 -14 15 -16 17 18 -19 -20 21 -22 23 24 25 26 27 -28 29 30 31 32 33 34 35 36 -37 38 0
1 2 3 4 5 6 -7 8 9 10 -11 12 -13 -14 -15 -16 17 -18 19 20 21 22 23 -24 -25 -26 -27 28 29 30 -31 32 -33 34 35 -36 -37 38 0
1 2 3 4 5 6 7 8 9 10 -11 12 -13 -14 -15 -16 17 -18 19 20 21 22 -23 -24 -25 -26 27 28 29 30 -31 -32 -33 34 35 -36 -37 38 0
1 2 3 4 5 6 7 8 9 10 -11 12 -13 -14 -15 -16 -17 -18 19 20 21 22 23 -24 -25 -26 -27 28 29 30 -31 32 -33 34 35 -36 -37 38 0
1 2 -3 -4 -5 6 7 8 -9 10 -11 12 -13 14 15 -16 17 18 -19 20 -21 22 23 24 -25 26 27 28 29 30 31 -32 33 -34 35 36 -37 38 0
1 2 -3 -4 -5 6 7 -8 9 10 -11 12 13 -14 -15 -16 17 18 -19 20 21 22 -23 24 -25 26 -27 28 29 30 31 -32 33 34 35 36 37 38 0
1 2 3 4 5 6 -7 8 9 10 -11 12 -13 -14 -15 -16 17 -18 19 20 21 22 -23 -24 -25 -26 27 28 29 30 -31 -32 33 -34 35 36 37 38 0
1 2 -3 -4 -5 6 7 -8 9 10 -11 12 13 -14 -15 -16 17 18 -19 20 21 22 23 24 -25 26 27 28 29 30 31 -32 33 -34 35 36 -37 38 0
1 2 -3 -4 5 -6 7 8 9 10 11 -12 -13 -14 -15 -16 17 18 -19 20 21 -22 23 24 25 26 27 28 29 -30 31 32 33 -34 35 -36 37 38 0
1 2 -3 -4 -5 6 7 8 9 -10 -11 12 -13 -14 15 16 17 18 -19 20 21 -22 -23 24 25 -26 -27 28 29 30 31 32 33 34 35 36 37 -38 0
1 2 -3 -4 -5 6 7 -8 9 -10 11 -12 13 14 -15 16 -17 -18 -19 -20 21 22 23 24 25 26 27 28 29 30 31 -32 33 34 -35 36 37 38 0
1 2 -3 -4 -5 6 7 -8 9 -10 -11 12 13 14 -15 16 17 -18 -19 20 -21 22 23 24 -25 26 27 28 29 30 31 -32 33 34 -35 36 37 38 0
1 2 -3 -4 5 -6 7 8 9 10 11 -12 13 14 15 16 17 18 19 20 -21 -22 -23 24 -25 26 27 28 29 -30 -31 -32 33 34 35 -36 -37 38 0
1 2 -3 -4 -5 6 7 8 9 -10 -11 12 13 14 -15 16 17 18 19 20 21 -22 23 24 25 -26 -27 28 -29 30 31 32 -33 -34 -35 36 37 -38 0
1 2 -3 -4 5 -6 7 8 9 10 11 -12 13 14 15 16 17 -18 -19 -20 21 22 23 24 25 -26 27 -28 29 -30 31 -32 -33 34 35 -36 -37 38 0
1 2 -3 -4 -5 6 7 -8 9 -10 -11 12 13 14 15 16 17 -18 -19 20 -21 -22 23 -24 25 -26 27 28 29 -30 31 32 33 34 35 36 37 -38 0
1 2 -3 -4 -5 6 7 -8 9 10 -11 -12 13 -14 -15 16 17 18 -19 20 21 -22 23 24 -25 -26 27 28 29 30 31 32 33 34 35 36 37 -38 0
1 2 3 4 5 6 -7 8 9 10 -11 12 -13 -14 -15 -16 17 -18 19 20 21 22 -23 -24 -25 -26 -27 28 29 30 -31 32 -33 34 35 36 37 38 0
1 2 -3 -4 5 -6 7 8 9 10 11 12 -13 -14 -15 -16 -17 18 -19 20 21 22 23 24 25 26 -27 -28 29 30 -31 32 33 34 35 36 37 -38 0
1 2 -3 -4 -5 6 7 -8 9 -10 -11 12 13 14 -15 16 17 -18 -19 20 21 -22 23 24 -25 -26 27 28 29 30 31 32 33 34 35 36 -37 38 0
1 2 -3 -4 -5 6 7 8 9 -10 -11 12 13 14 -15 16 17 18 19 20 21 -22 23 -24 -25 -26 27 28 29 30 -31 -32 33 -34 35 36 37 38 0
1 2 -3 -4 -5 6 7 8 9 -10 -11 12 13 14 -15 16 17 18 19 20 21 -22 23 -24 -25 -26 -27 28 29 30 31 32 -33 -34 35 -36 37 38 0
1 2 -3 -4 -5 6 7 8 9 -10 11 -12 13 14 -15 16 -17 18 19 -20 -21 22 23 24 25 26 -27 -28 29 30 -31 32 33 34 35 36 37 -38 0
1 2 -3 -4 -5 6 7 -8 9 -10 11 -12 13 14 -15 16 -17 -18 -19 20 -21 22 23 24 25 -26 27 28 -29 30 31 32 33 34 35 36 37 -38 0
1 2 3 4 5 6 7 -8 9 -10 -11 12 13 -14 15 -16 17 18 -19 20 21 22 23 24 -25 -26 -27 -28 29 30 31 32 33 -34 -35 36 37 -38 0
1 2 3 4 5 6 -7 8 9 10 -11 12 -13 -14 -15 -16 17 -18 19 20 21 22 -23 -24 -25 -26 -27 28 29 30 -31 32 33 34 35 36 37 -38 0
1 -2 -3 4 5 -6 7 8 9 10 11 -12 13 14 15 16 17 18 19 20 -21 -22 -23 24 -25 26 27 28 29 -30 -31 -32 33 34 35 -36 -37 38 0
1 2 -3 -4 -5 6 7 8 -9 10 -11 12 -13 14 15 -16 17 18 -19 20 -21 22 -23 -24 25 -26 27 28 29 -30 31 32 33 34 35 36 37 38 0
1 2 -3 -4 -5 6 7 -8 9 -10 11 -12 13 14 15 -16 17 -18 -19 -20 21 -22 23 24 25 -26 27 28 -29 30 31 32 33 34 35 36 37 -38 0
1 2 3 4 5 6 7 8 -9 -10 11 12 -13 14 15 -16 17 18 -19 20 -21 -22 23 -24 25 26 27 -28 -29 -30 31 32 33 -34 -35 36 37 -38 0
1 -2 -3 4 5 -6 7 8 9 10 11 -12 -13 -14 -15 -16 17 -18 19 20 21 -22 23 -24 -25 -26 27 28 29 30 31 32 33 34 35 36 37 -38 0
1 2 -3 -4 -5 6 7 -8 9 10 -11 -12 13 -14 15 -16 17 18 -19 20 21 -22 23 24 -25 -26 27 28 29 30 31 32 33 34 35 36 37 -38 0
1 -2 -3 4 5 -6 7 8 -9 -10 11 12 -13 14 15 -16 -17 -18 19 20 -21 22 23 24 25 26 -27 28 29 -30 -31 32 33 34 35 36 37 38 0
1 2 -3 -4 -5 6 7 -8 9 -10 -11 12 13 14 15 16 17 18 -19 -20 21 -22 -23 24 -25 26 -27 28 29 30 31 32 33 34 35 36 37 -38 0
1 2 3 4 5 6 7 -8 9 -10 -11 12 13 14 -15 16 17 -18 -19 20 21 -22 23 24 -25 -26 -27 28 29 30 31 32 -33 -34 -35 36 37 -38 0
1 2 -3 -4 5 -6 7 8 9 10 11 12 -13 -14 -15 -16 -17 18 -19 20 21 -22 23 24 25 26 27 28 29 -30 31 32 33 -34 35 -36 37 38 0
1 2 -3 -4 -5 6 7 -8 9 -10 11 -12 13 14 -15 16 -17 -18 -19 -20 21 22 23 24 25 26 27 28 29 30 31 32 -33 -34 35 -36 37 38 0
1 2 3 4 5 6 7 -8 9 -10 11 12 13 -14 15 -16 17 18 -19 20 21 -22 -23 24 -25 -26 27 28 29 30 -31 32 33 -34 -35 36 37 -38 0
1 2 3 4 5 6 -7 8 9 10 -11 12 13 14 15 -16 -17 18 19 -20 -21 22 23 -24 25 -26 27 -28 29 -30 31 -32 -33 34 35 -36 -37 38 0
1 2 -3 -4 -5 6 7 8 9 -10 -11 -12 -13 -14 15 16 17 18 -19 20 21 -22 23 24 25 -26 -27 28 29 30 31 32 33 34 35 36 37 -38 0
1 2 -3 -4 5 -6 7 8 9 10 11 12 13 14 -15 16 17 18 19 -20 21 -22 23 24 -25 26 -27 -28 -29 30 31 32 -33 -34 -35 36 37 -38 0
1 2 -3 -4 -5 6 7 -8 9 10 -11 12 13 -14 15 -16 17 18 -19 20 -21 22 -23 24 25 -26 27 28 29 -30 31 32 33 34 35 36 37 -38 0
1 2 -3 -4 5 -6 7 8 9 10 11 -12 -13 -14 -15 -16 17 -18 19 20 21 -22 23 -24 -25 -26 27 28 29 30 31 32 33 34 35 36 37 -38 0
1 2 3 4 5 6 7 -8 9 -10 -11 12 13 14 -15 -16 17 -18 -19 20 21 22 23 24 -25 -26 -27 -28 29 30 31 32 -33 -34 35 -36 37 38 0
1 2 -3 -4 -5 6 7 -8 9 -10 -11 12 13 14 15 16 17 -18 -19 -20 -21 -22 23 24 25 26 -27 28 29 -30 31 32 33 34 35 36 37 38 0
1 2 3 4 5 6 7 -8 9 -10 -11 12 13 14 -15 16 17 -18 -19 20 21 -22 -23 24 -25 -26 27 28 29 30 -31 32 -33 34 35 -36 -37 38 0
1 2 -3 -4 -5 6 7 -8 9 -10 11 -12 13 -14 15 -16 17 18 -19 20 21 -22 23 24 -25 -26 27 28 29 30 31 32 33 34 35 36 37 -38 0
1 2 -3 -4 -5 6 7 8 9 -10 11 -12 -13 -14 15 -16 17 -18 19 20 21 -22 23 -24 -25 -26 27 28 29 30 31 32 33 34 35 36 37 -38 0
1 2 -3 -4 -5 6 7 8 9 -10 -11 12 13 14 -15 16 17 18 19 20 21 -22 -23 -24 -25 -26 27 28 29 30 -31 32 -33 34 35 36 37 -38 0
1 2 -3 -4 -5 6 7 -8 9 -10 -11 12 13 14 15 -16 17 -18 -19 -20 -21 22 23 24 25 26 27 28 -29 -30 31 32 -33 34 35 36 37 38 0
1 -2 -3 4 5 -6 7 8 9 10 11 -12 13 14 15 16 17 -18 -19 -20 21 22 23 24 25 -26 27 -28 29 -30 31 -32 -33 34 35 -36 -37 38 0
1 2 3 4 5 6 7 8 9 10 -11 12 -13 -14 -15 -16 17 -18 19 20 21 22 -23 24 -25 26 -27 28 -29 30 -31 32 33 -34 -35 36 37 -38 0
1 2 -3 -4 5 -6 7 8 9 10 11 12 13 14 15 -16 17 18 19 -20 -21 -22 -23 -24 25 26 27 28 29 -30 31 -32 -33 34 -35 36 37 -38 0
1 2 -3 -4 5 -6 7 8 -9 -10 11 12 -13 14 15 -16 -17 18 -19 20 21 -22 23 24 25 26 27 28 29 -30 31 32 33 -34 35 -36 37 38 0
1 -2 -3 4 5 -6 7 8 9 10 11 -12 -13 -14 -15 -16 17 18 -19 20 21 22 -23 24 25 26 -27 28 29 30 31 -32 33 34 35 36 37 -38 0
1 2 -3 -4 5 -6 7 8 -9 -10 11 12 -13 14 15 16 17 18 -19 20 21 22 23 -24 25 -26 27 28 -29 30 -31 32 33 -34 -35 36 37 -38 0
1 2 -3 -4 -5 6 7 -8 9 -10 -11 12 13 14 15 16 17 18 -19 -20 -21 -22 23 24 25 26 -27 28 29 -30 31 32 33 34 35 36 37 -38 0
1 2 3 4 5 6 7 8 9 10 -11 12 -13 -14 -15 -16 17 -18 19 20 21 22 23 -24 -25 -26 -27 -28 29 30 31 32 33 -34 -35 36 37 -38 0
1 2 -3 -4 -5 6 7 -8 9 10 -11 -12 13 -14 15 -16 17 18 -19 -20 21 -22 23 24 25 26 27 -28 29 30 31 32 33 34 35 36 37 -38 0
1 2 3 4 5 6 7 8 -9 -10 11 12 -13 14 15 -16 17 18 -19 20 -21 -22 23 -24 25 26 27 28 -29 -30 -31 -32 33 34 35 -36 -37 38 0
1 2 -3 -4 -5 6 7 8 9 -10 -11 12 13 14 -15 16 17 18 19 20 21 -22 -23 24 25 26 27 28 -29 -30 -31 -32 33 34 35 36 -37 38 0
1 2 -3 -4 -5 6 7 -8 9 -10 11 -12 13 14 15 -16 17 18 -19 -20 21 -22 23 24 25 -26 27 28 -29 30 31 32 33 34 35 36 -37 38 0
1 2 -3 -4 -5 6 7 -8 9 10 -11 -12 13 -14 15 -16 17 18 -19 -20 21 -22 23 24 25 -26 27 28 -29 30 31 32 33 34 35 36 37 38 0
1 2 3 4 5 6 7 8 -9 -10 11 12 -13 14 15 -16 17 18 -19 20 -21 22 23 -24 25 -26 -27 -28 29 30 31 32 -33 -34 -35 36 37 -38 0
1 2 3 4 5 6 7 -8 9 -10 -11 12 13 -14 15 -16 -17 18 -19 20 21 22 23 24 -25 -26 -27 -28 29 30 -31 32 33 34 35 36 37 -38 0
1 -2 -3 4 5 -6 7 8 -9 -10 11 12 -13 14 15 16 17 18 -19 20 21 22 23 -24 25 -26 27 28 -29 30 -31 32 33 -34 -35 36 37 -38 0
1 2 -3 -4 -5 6 7 8 9 -10 -11 12 13 14 -15 16 17 18 19 20 21 -22 -23 -24 -25 -26 27 28 29 30 -31 32 33 -34 35 36 37 38 0
1 2 3 4 5 6 7 -8 9 -10 -11 12 13 14 -15 16 17 -18 -19 20 21 -22 23 24 -25 -26 27 28 29 30 -31 -32 -33 34 35 -36 -37 38 0
1 2 -3 -4 -5 6 7 -8 9 10 -11 12 13 14 -15 -16 17 -18 -19 -20 21 22 -23 24 25 -26 27 28 -29 30 31 32 33 34 35 36 37 -38 0
1 2 -3 -4 -5 6 7 -8 9 10 -11 12 13 14 -15 -16 17 18 -19 -20 21 22 -23 24 25 -26 27 28 -29 30 31 32 33 34 35 36 -37 38 0
1 2 -3 -4 5 -6 7 8 -9 -10 11 12 -13 14 15 -16 -17 18 -19 20 21 -22 23 24 -25 -26 27 28 29 30 31 32 33 34 35 36 37 -38 0
1 -2 -3 4 5 -6 7 8 -9 -10 11 12 -13 14 15 -16 -17 18 -19 20 21 -22 23 24 25 26 27 28 29 -30 31 32 33 -34 35 -36 37 38 0
1 2 -3 -4 -5 6 7 -8 9 -10 -11 12 13 14 15 -16 17 18 -19 -20 -21 22 23 24 25 26 27 28 -29 -30 31 32 -33 34 35 36 37 -38 0
1 2 3 4 5 6 -7 8 9 10 -11 12 13 14 15 -16 17 -18 -19 -20 21 -22 -23 24 25 -26 27 28 29 -30 31 -32 -33 34 -35 36 37 -38 0
1 2 -3 -4 -5 6 7 8 -9 10 -11 -12 13 -14 15 16 17 18 19 -20 21 -22 -23 24 25 -26 -27 28 29 30 31 32 33 34 35 36 37 -38 0
1 2 -3 -4 5 -6 7 8 9 10 11 -12 -13 -14 -15 -16 17 18 -19 20 21 22 -23 24 25 26 -27 28 29 30 31 -32 33 34 35 36 37 -38 0
1 2 -3 -4 -5 6 7 8 -9 10 -11 12 -13 14 15 -16 17 18 -19 20 -21 22 -23 24 25 -26 27 28 29 -30 31 32 33 34 35 36 37 -38 0
1 2 3 4 5 6 7 -8 9 -10 -11 12 13 14 -15 16 17 -18 -19 20 21 -22 23 24 -25 -26 -27 28 29 30 31 -32 33 -34 35 36 -37 38 0
1 2 -3 -4 -5 6 7 -8 9 10 -11 12 13 14 -15 -16 17 -18 -19 -20 21 22 -23 24 25 26 -27 28 29 30 31 -32 33 34 35 36 37 38 0
1 2 -3 -4 -5 6 7 8 9 -10 11 -12 13 14 -15 16 -17 -18 -19 -20 21 22 23 24 25 26 27 28 29 30 31 -32 33 -34 35 36 -37 38 0
1 2 3 4 5 6 7 8 -9 -10 11 12 -13 14 15 -16 17 18 -19 20 21 -22 -23 24 -25 -26 27 28 29 30 -31 32 33 -34 -35 36 37 -38 0
1 2 -3 -4 -5 6 7 -8 9 10 -11 -12 13 -14 -15 16 17 18 -19 20 21 -22 23 24 25 -26 -27 28 29 30 31 32 33 34 35 36 37 -38 0
1 -2 -3 4 5 -6 7 8 -9 -10 11 -12 -13 14 15 -16 17 18 -19 20 21 -22 23 24 -25 -26 27 28 29 30 31 32 33 34 35 36 37 -38 0
1 2 3 4 5 6 7 -8 9 -10 -11 12 13 14 -15 16 17 -18 -19 20 21 -22 -23 24 -25 -26 27 28 29 30 -31 32 33 -34 35 36 -37 38 0
1 2 3 4 5 6 7 8 9 10 -11 12 -13 -14 -15 -16 -17 -18 19 20 21 22 23 -24 -25 -26 -27 -28 29 30 -31 32 33 34 35 36 37 -38 0
1 2 3 4 5 6 7 -8 9 -10 -11 12 13 14 -15 -16 17 -18 -19 20 21 22 23 24 -25 -26 -27 28 29 30 -31 32 -33 34 35 -36 -37 38 0
1 2 -3 -4 -5 6 7 -8 9 10 -11 12 13 -14 -15 -16 17 18 -19 20 21 22 23 24 -25 26 27 28 29 -30 31 32 33 -34 35 -36 37 38 0
1 2 -3 -4 -5 6 7 -8 9 -10 -11 12 13 14 15 -16 17 18 -19 -20 -21 22 23 24 25 26 27 28 -29 -30 31 32 33 -34 35 36 37 38 0
1 2 -3 -4 5 -6 7 8 9 10 11 12 13 14 15 -16 17 18 19 -20 -21 -22 23 -24 25 26 27 -28 -29 -30 31 32 33 -34 -35 36 37 -38 0
1 2 3 4 5 6 7 8 9 10 -11 12 -13 -14 -15 -16 -17 -18 19 20 21 22 23 24 -25 26 -27 28 -29 30 -31 -32 33 34 35 -36 -37 38 0
1 2 -3 -4 -5 6 7 -8 9 10 -11 -12 13 -14 15 -16 17 18 -19 -20 21 22 23 24 25 -26 27 28 29 -30 31 32 33 34 35 36 37 -38 0
1 2 -3 -4 -5 6 7 8 -9 10 -11 12 -13 14 15 -16 17 -18 19 20 21 -22 -23 24 25 26 27 28 29 30 -31 -32 33 -34 35 36 37 38 0
1 2 -3 -4 -5 6 7 8 -9 10 -11 -12 -13 14 15 -16 17 -18 19 20 21 -22 23 -24 -25 -26 27 28 29 30 31 32 33 34 35 36 37 -38 0
1 -2 -3 4 5 -6 7 8 -9 -10 11 12 -13 14 15 -16 -17 18 -19 20 21 -22 23 24 -25 -26 27 28 29 30 31 32 33 34 35 36 37 -38 0
1 2 -3 -4 5 -6 7 8 9 10 11 12 13 14 15 -16 17 18 19 -20 -21 -22 23 -24 25 26 27 28 -29 -30 -31 -32 33 34 35 -36 -37 38 0
1 2 -3 -4 -5 6 7 -8 9 10 -11 -12 13 -14 15 -16 17 18 -19 -20 21 22 23 24 25 -26 27 28 -29 30 31 32 33 34 35 36 -37 38 0
1 2 -3 -4 -5 6 7 -8 9 10 -11 12 13 14 -15 -16 17 18 -19 -20 21 22 -23 24 25 26 -27 28 29 30 31 -32 33 34 35 36 37 -38 0
1 2 -3 -4 5 -6 7 8 -9 -10 11 12 -13 14 15 16 17 18 -19 20 21 22 23 24 -25 -26 27 28 29 30 -31 32 33 -34 -35 36 37 -38 0
1 2 -3 -4 5 -6 7 8 9 10 11 12 -13 -14 -15 -16 -17 -18 19 20 21 22 23 24 -25 26 27 -28 -29 30 31 -32 33 34 35 36 37 -38 0
1 -2 -3 4 5 -6 7 8 9 10 11 -12 -13 -14 -15 -16 17 18 -19 20 21 -22 23 24 25 26 27 28 29 -30 31 32 33 -34 35 -36 37 38 0
1 -2 -3 4 5 -6 7 8 -9 -10 11 12 -13 14 15 16 17 18 -19 20 21 22 23 24 -25 -26 27 28 29 30 -31 32 33 -34 -35 36 37 -38 0
1 2 -3 -4 -5 6 7 -8 9 10 -11 12 13 -14 -15 -16 17 18 -19 20 21 22 23 24 -25 26 27 28 -29 30 31 -32 33 34 -35 36 37 38 0
1 2 -3 -4 -5 6 7 8 9 -10 -11 12 13 14 -15 16 17 18 19 20 21 -22 23 24 25 -26 -27 28 -29 30 31 -32 -33 34 35 -36 -37 38 0
1 2 -3 -4 5 -6 7 8 -9 -10 11 12 -13 14 15 -16 -17 -18 19 20 -21 22 23 24 25 26 -27 28 29 -30 -31 32 33 34 35 36 37 38 0
1 2 3 4 5 6 7 -8 9 -10 -11 12 13 14 -15 16 17 -18 -19 20 21 -22 -23 24 -25 -26 27 28 29 30 -31 -32 33 -34 35 36 37 38 0
1 2 3 4 5 6 7 8 9 10 -11 12 -13 -14 -15 -16 -17 18 -19 20 21 22 23 24 25 26 -27 -28 29 -30 31 32 33 -34 -35 36 37 -38 0
1 2 3 4 5 6 7 8 9 10 -11 12 -13 -14 -15 -16 17 -18 19 20 21 22 -23 24 -25 26 -27 28 -29 30 -31 -32 33 34 35 -36 -37 38 0
1 2 3 4 5 6 -7 8 9 10 -11 12 -13 -14 -15 -16 17 -18 19 20 21 22 23 -24 -25 -26 -27 -28 29 30 -31 32 33 34 35 36 37 -38 0
1 2 3 4 5 6 -7 8 9 10 -11 12 -13 -14 -15 -16 17 18 -19 20 21 22 23 24 25 26 -27 -28 29 -30 31 32 33 -34 -35 36 37 -38 0
1 2 -3 -4 -5 6 7 -8 9 10 -11 -12 13 -14 15 -16 17 18 -19 20 -21 22 23 24 -25 26 27 28 29 30 31 32 33 34 35 36 -37 38 0
1 2 -3 -4 -5 6 7 8 9 -10 -11 12 13 14 -15 16 17 18 19 20 21 -22 -23 -24 -25 -26 27 28 29 30 -31 32 -33 34 35 36 37 38 0
1 -2 -3 4 5 -6 7 8 -9 -10 11 -12 -13 14 15 -16 17 18 -19 20 21 -22 23 24 -25 -26 27 28 29 30 31 32 33 34 35 36 37 38 0
1 2 -3 -4 -5 6 7 -8 9 -10 -11 12 13 14 -15 16 17 -18 -19 20 21 -22 23 24 -25 -26 27 28 29 30 31 32 33 34 35 36 37 -38 0
1 -2 -3 4 5 -6 7 8 9 10 11 -12 -13 -14 -15 -16 17 18 -19 20 21 22 -23 24 25 26 -27 28 29 30 31 -32 33 34 35 36 37 38 0
1 2 -3 -4 5 -6 7 8 -9 -10 11 12 -13 14 15 -16 -17 18 -19 20 21 -22 23 24 25 26 27 28 29 -30 31 32 33 -34 35 36 37 38 0
1 2 -3 -4 -5 6 7 8 -9 10 -11 -12 13 -14 15 -16 17 18 19 -20 -21 22 23 24 25 26 27 28 29 30 31 -32 33 34 -35 36 37 38 0
1 2 -3 -4 -5 6 7 8 -9 10 -11 -12 13 -14 15 -16 17 18 19 -20 21 -22 23 24 25 -26 27 28 29 30 31 32 33 34 35 36 -37 38 0
1 2 -3 -4 5 -6 7 8 -9 -10 11 12 -13 14 15 -16 -17 18 -19 20 21 -22 23 24 25 26 27 -28 29 30 31 32 33 34 35 36 -37 38 0
1 -2 -3 4 5 -6 7 8 -9 -10 11 12 -13 14 15 16 17 18 -19 20 21 22 -23 24 25 26 27 -28 29 30 31 32 -33 -34 -35 36 37 -38 0
1 2 -3 -4 -5 6 7 -8 9 10 -11 12 13 -14 15 -16 17 18 -19 20 -21 22 23 24 -25 26 27 28 29 30 31 -32 33 34 -35 36 37 38 0
1 2 -3 -4 -5 6 7 -8 9 -10 11 -12 13 14 15 -16 17 -18 -19 -20 21 -22 23 24 25 -26 27 28 -29 30 31 32 33 34 35 36 37 38 0
1 2 3 4 5 6 -7 8 9 10 -11 12 13 14 15 -16 -17 18 19 -20 -21 22 23 -24 25 26 -27 -28 -29 30 31 32 -33 -34 -35 36 37 -38 0
1 2 -3 -4 5 -6 7 8 -9 -10 11 12 -13 14 15 16 17 18 -19 20 21 22 -23 24 25 26 27 -28 29 30 31 32 -33 -34 -35 36 37 -38 0
1 2 -3 -4 -5 6 7 8 -9 10 -11 -12 -13 14 15 -16 17 18 -19 20 -21 22 23 24 -25 26 27 28 29 30 31 32 33 34 35 36 -37 38 0
1 -2 -3 4 5 -6 7 8 9 10 11 -12 13 14 15 16 17 18 19 20 -21 -22 -23 24 -25 26 27 28 29 -30 -31 -32 33 34 35 36 -37 38 0
1 2 3 4 5 6 -7 8 9 10 -11 12 13 14 -15 16 -17 -18 -19 -20 -21 22 23 24 25 26 -27 -28 29 -30 31 32 33 -34 35 -36 37 38 0
1 2 -3 -4 -5 6 7 -8 9 10 -11 12 13 14 -15 -16 17 -18 -19 -20 21 22 -23 24 25 -26 27 28 -29 30 31 32 33 34 35 36 37 38 0
1 2 3 4 5 6 7 -8 9 -10 -11 12 13 14 -15 16 17 -18 -19 20 21 -22 23 24 -25 -26 -27 28 29 30 31 32 33 -34 -35 36 37 -38 0
1 2 -3 -4 -5 6 7 -8 9 -10 11 -12 13 -14 15 -16 17 18 -19 20 21 -22 23 24 -25 -26 27 28 29 30 31 32 33 34 35 36 37 38 0
1 2 -3 -4 -5 6 7 8 9 -10 -11 -12 -13 -14 15 16 17 18 -19 20 21 -22 23 24 25 -26 -27 28 29 30 31 32 33 34 35 36 37 38 0
1 2 -3 -4 -5 6 7 8 9 -10 -11 12 -13 -14 15 16 17 18 -19 20 21 -22 -23 24 25 -26 -27 28 29 30 31 32 33 34 35 36 37 38 0
1 2 -3 -4 -5 6 7 -8 9 -10 11 -12 13 14 15 -16 17 18 -19 -20 21 -22 23 24 25 -26 27 28 -29 30 31 32 33 34 35 36 37 -38 0
1 2 3 4 5 6 -7 8 9 10 -11 12 13 14 15 -16 -17 18 19 -20 -21 22 23 24 25 -26 27 -28 29 -30 31 -32 -33 34 35 -36 -37 38 0
1 2 3 4 5 6 -7 8 9 10 -11 12 -13 -14 -15 -16 17 -18 19 20 21 22 23 -24 -25 26 27 28 29 -30 31 -32 -33 34 -35 36 37 -38 0
1 2 3 4 5 6 7 8 9 10 -11 12 -13 -14 -15 -16 17 -18 19 20 21 22 -23 -24 -25 -26 27 28 29 30 -31 -32 33 -34 35 36 37 38 0
1 2 3 4 5 6 7 8 -9 -10 11 12 -13 14 15 -16 17 18 -19 20 21 -22 -23 24 -25 -26 27 28 29 30 -31 32 33 -34 35 36 -37 38 0
1 2 -3 -4 -5 6 7 -8 9 10 -11 12 13 14 -15 -16 17 -18 -19 20 -21 22 23 24 25 -26 27 28 -29 30 31 32 33 34 35 36 -37 38 0
1 2 3 4 5 6 7 -8 9 -10 -11 12 13 14 -15 16 17 -18 -19 20 -21 22 23 -24 25 -26 -27 28 29 30 -31 32 -33 34 35 -36 -37 38 0
1 2 3 4 5 6 7 -8 9 -10 -11 12 13 14 -15 16 17 -18 -19 20 -21 22 23 -24 25 -26 -27 28 29 30 31 32 -33 -34 -35 36 37 -38 0
1 2 -3 -4 -5 6 7 -8 9 -10 11 -12 13 14 -15 16 -17 18 -19 -20 21 22 23 24 25 26 27 28 29 30 31 -32 33 34 -35 36 37 38 0
1 2 -3 -4 -5 6 7 8 -9 10 -11 -12 13 -14 15 -16 17 18 19 -20 -21 22 23 24 25 26 27 28 29 30 31 32 -33 -34 35 -36 37 38 0
1 -2 -3 4 5 -6 7 8 9 10 11 -12 -13 -14 -15 -16 17 18 -19 20 21 -22 23 24 25 26 27 28 29 30 31 32 -33 -34 35 -36 37 38 0
1 -2 -3 4 5 -6 7 8 -9 -10 11 -12 -13 14 15 -16 17 18 -19 20 21 -22 23 24 25 26 27 -28 29 30 31 32 33 34 35 36 -37 38 0
1 -2 -3 4 5 -6 7 8 -9 -10 11 12 -13 14 15 -16 -17 18 -19 20 21 -22 23 24 25 26 27 28 29 -30 31 32 33 -34 35 36 37 38 0
1 2 -3 -4 -5 6 7 -8 9 -10 -11 12 13 14 15 -16 17 18 -19 -20 -21 22 23 24 25 26 27 28 -29 -30 31 32 -33 34 35 36 37 38 0
1 2 -3 -4 5 -6 7 8 9 10 11 12 13 14 15 16 17 18 19 -20 -21 22 -23 -24 25 -26 27 -28 29 -30 31 32 33 -34 -35 36 37 -38 0
1 2 3 4 5 6 7 8 9 10 -11 12 -13 -14 -15 -16 17 -18 19 20 21 22 23 -24 -25 -26 -27 -28 29 30 31 32 -33 -34 35 -36 37 38 0
1 2 3 4 5 6 7 8 9 10 -11 12 -13 -14 -15 -16 17 -18 19 20 21 22 23 -24 -25 -26 -27 28 29 30 -31 32 -33 34 35 -36 -37 38 0
1 2 3 4 5 6 7 8 -9 -10 11 12 -13 14 15 -16 17 18 -19 20 21 -22 -23 24 -25 -26 27 28 29 30 -31 32 -33 34 35 -36 -37 38 0
1 2 -3 -4 -5 6 7 -8 9 10 -11 -12 13 -14 -15 16 17 18 -19 20 21 -22 23 24 -25 -26 27 28 29 30 31 32 33 34 35 36 37 38 0
1 2 -3 -4 -5 6 7 8 -9 10 -11 -12 13 -14 15 16 17 18 19 -20 21 -22 -23 24 25 -26 -27 28 29 30 31 32 33 34 35 36 37 38 0
1 2 -3 -4 5 -6 7 8 9 10 11 12 -13 -14 -15 -16 -17 18 -19 20 21 22 23 24 25 26 -27 -28 29 30 -31 32 33 34 35 36 37 38 0
1 2 -3 -4 -5 6 7 -8 9 10 -11 -12 13 -14 -15 16 17 18 -19 20 21 -22 23 24 25 -26 -27 28 29 30 31 32 33 34 35 36 37 38 0
1 2 -3 -4 5 -6 7 8 9 10 11 -12 -13 -14 -15 -16 17 -18 19 20 21 -22 23 -24 -25 -26 27 28 29 30 31 32 33 34 35 36 37 38 0
1 2 -3 -4 -5 6 7 -8 9 -10 -11 12 13 14 15 16 17 18 -19 -20 -21 -22 23 24 25 26 -27 28 29 -30 31 32 33 34 35 36 37 38 0
1 2 3 4 5 6 7 8 -9 -10 11 12 -13 14 15 -16 17 18 -19 20 21 -22 23 24 -25 -26 27 28 29 30 -31 -32 -33 34 35 -36 -37 38 0
1 2 -3 -4 -5 6 7 -8 9 -10 11 -12 13 14 -15 16 -17 18 -19 -20 21 22 23 24 25 26 27 28 29 30 31 32 -33 -34 35 -36 37 38 0
1 2 -3 -4 -5 6 7 -8 9 -10 11 -12 13 14 -15 16 -17 -18 -19 20 -21 22 23 24 25 -26 27 28 -29 30 31 32 33 34 35 36 37 38 0
1 2 3 4 5 6 -7 8 9 10 -11 12 -13 -14 -15 -16 17 -18 19 20 21 22 -23 24 -25 26 -27 28 -29 30 -31 32 -33 34 35 36 37 -38 0
1 2 -3 -4 -5 6 7 8 9 -10 11 -12 13 14 -15 16 -17 18 19 -20 -21 22 23 24 25 26 -27 -28 29 30 -31 32 33 34 35 36 37 38 0
1 2 -3 -4 -5 6 7 -8 9 10 -11 -12 13 -14 15 -16 17 18 -19 -20 21 22 23 24 25 -26 27 28 29 -30 31 32 33 34 35 36 37 38 0
1 2 3 4 5 6 7 -8 9 -10 11 12 13 -14 15 -16 17 18 -19 20 21 -22 -23 24 -25 -26 27 28 29 30 -31 32 -33 34 35 -36 -37 38 0
1 -2 -3 4 5 -6 7 8 -9 -10 11 12 -13 14 15 -16 -17 18 -19 20 21 -22 23 24 -25 -26 27 28 29 30 31 32 33 34 35 36 37 38 0
1 -2 -3 4 5 -6 7 8 -9 -10 11 12 -13 14 15 16 17 18 -19 20 21 22 23 -24 25 -26 27 28 -29 30 -31 32 33 -34 35 36 -37 38 0
1 2 -3 -4 5 -6 7 8 9 10 11 -12 -13 -14 -15 -16 17 18 -19 20 21 -22 23 24 25 26 27 -28 29 30 31 32 33 34 35 36 -37 38 0
1 -2 -3 4 5 -6 7 8 9 10 11 -12 -13 -14 -15 -16 17 -18 19 20 21 -22 23 -24 -25 -26 27 28 29 30 31 32 33 34 35 36 37 38 0
1 2 -3 -4 -5 6 7 -8 9 10 -11 12 13 -14 15 -16 17 18 -19 20 -21 22 -23 24 25 -26 27 28 29 -30 31 32 33 34 35 36 37 38 0
1 2 -3 -4 -5 6 7 8 9 -10 11 -12 -13 -14 15 -16 17 -18 19 20 21 -22 23 -24 -25 -26 27 28 29 30 31 32 33 34 35 36 37 38 0
1 2 3 4 5 6 7 -8 9 -10 -11 12 13 14 -15 16 17 -18 -19 20 -21 22 23 24 25 -26 -27 28 -29 30 31 32 -33 -34 -35 36 37 -38 0
1 2 3 4 5 6 7 8 -9 -10 11 12 -13 14 15 -16 17 -18 19 20 -21 22 23 -24 -25 26 -27 -28 29 30 -31 32 -33 34 35 -36 -37 38 0
1 2 3 4 5 6 7 -8 9 -10 11 12 13 -14 15 -16 17 18 -19 20 21 -22 -23 24 -25 -26 27 28 29 30 -31 -32 33 -34 35 36 37 38 0
1 2 3 4 5 6 -7 8 9 10 -11 12 -13 -14 -15 -16 17 -18 19 20 21 22 -23 -24 -25 -26 -27 28 29 30 -31 32 33 34 35 36 37 38 0
1 2 -3 -4 5 -6 7 8 -9 -10 11 12 -13 14 15 -16 -17 18 -19 20 21 -22 23 24 -25 -26 27 28 29 30 31 32 33 34 35 36 37 38 0
1 2 -3 -4 5 -6 7 8 9 10 11 12 -13 -14 -15 -16 -17 18 -19 20 21 -22 23 24 25 26 27 28 29 -30 31 32 33 -34 35 36 37 38 0
1 2 -3 -4 5 -6 7 8 9 10 11 -12 13 14 15 16 17 18 19 20 -21 -22 -23 24 -25 26 27 28 29 -30 31 -32 -33 34 -35 36 37 -38 0
1 2 3 4 5 6 7 8 9 10 -11 12 -13 -14 -15 -16 -17 -18 19 20 21 22 23 -24 -25 -26 -27 28 29 30 -31 32 33 34 -35 36 37 38 0
1 2 -3 -4 -5 6 7 -8 9 -10 -11 12 13 14 15 16 17 -18 -19 20 -21 -22 23 -24 25 -26 27 28 29 -30 31 32 33 34 35 36 37 38 0
1 -2 -3 4 5 -6 7 8 9 10 11 -12 -13 -14 -15 -16 17 18 -19 20 21 -22 23 24 25 26 27 -28 29 30 31 32 33 34 35 36 -37 38 0
1 2 -3 -4 -5 6 7 -8 9 -10 -11 12 13 14 15 16 17 18 -19 -20 21 -22 -23 24 -25 26 -27 28 29 30 31 32 33 34 35 36 37 38 0
1 2 3 4 5 6 7 -8 9 -10 -11 12 13 -14 15 -16 17 18 -19 20 21 22 -23 24 -25 -26 -27 28 29 30 -31 32 -33 34 35 36 37 -38 0
1 -2 -3 4 5 -6 7 8 -9 -10 11 12 -13 14 15 -16 -17 18 -19 20 21 -22 23 24 25 26 27 -28 29 30 31 32 33 34 35 36 -37 38 0
1 -2 -3 4 5 -6 7 8 -9 -10 11 12 -13 14 15 16 17 18 -19 20 21 22 23 24 -25 -26 27 28 29 30 -31 32 -33 34 35 -36 -37 38 0
1 -2 -3 4 5 -6 7 8 9 10 11 -12 13 14 15 16 17 18 19 20 -21 -22 -23 24 -25 26 27 28 29 -30 31 -32 -33 34 -35 36 37 -38 0
1 2 -3 -4 5 -6 7 8 -9 -10 11 12 -13 14 15 16 17 18 -19 20 21 22 23 24 -25 -26 27 28 29 30 -31 32 -33 34 35 -36 -37 38 0
1 2 3 4 5 6 7 -8 9 -10 -11 12 13 -14 15 -16 17 18 -19 20 21 22 -23 24 -25 -26 -27 28 29 30 -31 32 33 34 -35 36 37 38 0
1 2 -3 -4 5 -6 7 8 9 10 11 -12 -13 -14 -15 -16 17 18 -19 20 21 -22 23 24 25 26 27 28 29 30 31 32 -33 -34 35 -36 37 38 0
1 2 3 4 5 6 7 -8 9 -10 -11 12 13 -14 15 -16 17 18 -19 20 21 22 23 24 -25 -26 -27 -28 29 30 31 32 -33 -34 35 -36 37 38 0
1 2 -3 -4 5 -6 7 8 -9 -10 11 12 -13 14 15 -16 -17 18 -19 20 21 -22 23 24 25 26 27 28 29 30 31 32 -33 -34 35 -36 37 38 0
1 2 -3 -4 -5 6 7 8 9 -10 -11 12 13 14 -15 16 17 18 19 20 21 -22 23 24 25 -26 -27 28 -29 30 31 -32 33 -34 35 -36 37 38 0
1 2 3 4 5 6 7 -8 9 -10 11 12 13 -14 15 -16 17 18 -19 20 21 -22 23 24 -25 -26 27 -28 29 30 -31 32 33 -34 35 36 -37 38 0
1 2 -3 -4 -5 6 7 -8 9 10 -11 -12 13 -14 15 -16 17 18 -19 -20 21 -22 23 24 25 26 27 -28 29 30 31 32 33 34 35 36 37 38 0
1 2 3 4 5 6 7 -8 9 -10 -11 12 13 -14 15 -16 -17 18 -19 20 21 22 23 24 -25 -26 -27 -28 29 30 -31 32 33 34 35 36 37 38 0
1 2 -3 -4 -5 6 7 -8 9 10 -11 12 13 14 -15 -16 17 18 -19 -20 21 22 -23 24 25 26 -27 28 29 30 31 -32 33 34 35 36 37 38 0
1 2 -3 -4 -5 6 7 8 -9 10 -11 -12 -13 14 15 -16 17 -18 19 20 21 -22 23 -24 -25 -26 27 28 29 30 31 32 33 34 35 36 37 38 0
1 2 3 4 5 6 7 -8 9 -10 -11 12 13 -14 15 -16 -17 18 -19 20 21 22 23 24 -25 -26 -27 28 29 30 -31 32 33 34 -35 36 37 38 0
1 2 3 4 5 6 7 8 -9 -10 11 12 -13 14 15 -16 17 18 -19 20 -21 -22 23 -24 25 26 27 28 -29 -30 -31 -32 33 34 35 36 -37 38 0
1 2 3 4 5 6 7 8 9 10 11 12 -13 -14 -15 16 -17 -18 19 20 -21 22 -23 -24 25 26 27 28 -29 -30 -31 -32 33 34 35 -36 -37 38 0
1 2 -3 -4 5 -6 7 8 -9 -10 11 12 -13 14 15 16 17 18 -19 20 21 22 23 -24 25 -26 27 28 -29 30 -31 32 33 -34 35 36 -37 38 0
1 -2 -3 4 5 -6 7 8 -9 -10 11 12 -13 14 15 -16 -17 18 -19 20 21 -22 23 24 25 26 27 28 29 30 31 32 -33 -34 35 -36 37 38 0
1 2 -3 -4 -5 6 7 -8 9 10 -11 12 13 -14 -15 16 17 18 -19 20 21 22 23 24 -25 -26 27 28 29 30 -31 32 -33 34 35 36 37 -38 0
1 2 -3 -4 -5 6 7 8 9 -10 -11 12 13 14 -15 16 17 18 19 20 21 -22 -23 24 25 26 27 28 29 30 -31 -32 -33 34 35 -36 -37 38 0
1 2 -3 -4 5 -6 7 8 9 10 11 -12 13 14 15 16 17 18 19 20 -21 -22 -23 24 -25 26 27 28 29 -30 -31 -32 33 34 35 36 -37 38 0
1 2 -3 -4 -5 6 7 -8 9 10 -11 12 13 -14 -15 -16 17 18 -19 20 21 22 23 24 -25 26 27 28 29 -30 31 32 -33 34 35 36 37 -38 0
1 2 -3 -4 5 -6 7 8 9 10 11 12 13 14 15 -16 17 18 19 -20 -21 -22 23 -24 25 26 27 28 -29 -30 -31 -32 33 34 35 36 -37 38 0
1 2 -3 -4 -5 6 7 -8 9 10 -11 -12 13 -14 15 -16 17 18 -19 20 21 -22 23 24 -25 -26 27 28 29 30 31 32 33 34 35 36 37 38 0
1 2 -3 -4 5 -6 7 8 9 10 11 -12 -13 -14 -15 -16 17 18 -19 20 21 22 -23 24 25 26 -27 28 29 30 31 -32 33 34 35 36 37 38 0
1 2 -3 -4 -5 6 7 -8 9 10 -11 -12 13 -14 15 -16 17 18 -19 -20 21 22 23 24 25 -26 27 28 -29 30 31 32 33 34 35 36 37 -38 0
1 2 -3 -4 -5 6 7 -8 9 10 -11 12 13 -14 -15 16 17 18 -19 20 21 22 23 24 -25 -26 27 28 29 30 -31 32 33 -34 35 36 37 38 0
1 2 -3 -4 -5 6 7 8 -9 10 -11 12 -13 14 15 -16 17 18 -19 20 -21 22 -23 24 25 -26 27 28 29 -30 31 32 33 34 35 36 37 38 0
1 2 -3 -4 5 -6 7 8 9 10 11 12 13 14 15 -16 17 18 19 20 21 -22 -23 24 -25 -26 27 28 29 30 -31 -32 -33 34 35 -36 -37 38 0
1 2 3 4 5 6 7 8 9 10 -11 12 -13 -14 -15 -16 17 -18 19 20 21 22 23 24 -25 26 -27 -28 -29 30 -31 32 33 -34 35 36 -37 38 0
1 2 3 4 5 6 7 -8 9 -10 -11 12 13 14 -15 16 17 -18 -19 20 -21 22 23 24 25 -26 27 -28 -29 30 -31 32 33 -34 35 36 -37 38 0
1 2 3 4 5 6 7 -8 9 -10 -11 12 13 14 -15 -16 17 -18 -19 20 21 22 23 24 -25 -26 -27 -28 29 30 -31 32 33 34 35 36 37 -38 0
1 2 -3 -4 -5 6 7 -8 9 10 -11 12 13 14 -15 -16 17 18 -19 -20 21 22 -23 24 25 -26 27 28 -29 30 31 32 33 34 35 36 37 -38 0
1 2 3 4 5 6 7 8 9 10 -11 12 -13 -14 -15 -16 -17 -18 19 20 21 22 23 24 -25 26 -27 -28 -29 30 -31 32 -33 34 35 36 37 -38 0
1 2 -3 -4 -5 6 7 -8 9 10 -11 12 13 -14 -15 -16 17 18 -19 20 21 22 23 24 -25 26 27 28 29 -30 31 32 33 34 35 36 -37 38 0
1 2 -3 -4 5 -6 7 8 9 10 11 -12 -13 -14 -15 -16 17 18 -19 20 21 -22 23 24 25 26 27 28 29 -30 31 32 33 -34 35 36 37 38 0
1 2 -3 -4 -5 6 7 8 -9 10 -11 12 -13 14 15 -16 17 18 -19 20 -21 22 23 24 -25 26 27 28 29 30 31 -32 33 34 -35 36 37 38 0
1 2 3 4 5 6 7 -8 9 -10 11 12 13 -14 15 -16 17 18 -19 20 21 -22 -23 24 -25 -26 27 28 29 30 -31 32 33 -34 35 36 -37 38 0
1 2 3 4 5 6 7 8 -9 -10 11 12 -13 14 15 -16 17 18 -19 20 -21 22 23 24 -25 26 -27 -28 29 30 -31 32 33 -34 35 36 -37 38 0
1 2 -3 -4 -5 6 7 8 -9 10 -11 12 13 -14 15 -16 17 18 19 -20 -21 22 23 24 25 26 27 28 29 30 31 -32 33 -34 35 36 -37 38 0
1 2 3 4 5 6 -7 8 9 10 -11 12 -13 -14 -15 -16 17 -18 19 20 21 22 23 -24 -25 -26 -27 28 29 30 -31 32 33 34 -35 36 37 38 0
1 2 -3 -4 -5 6 7 8 9 -10 -11 12 13 14 -15 16 17 18 19 20 21 -22 -23 24 -25 26 -27 28 29 -30 31 32 33 34 35 36 -37 38 0
1 2 -3 -4 -5 6 7 -8 9 10 -11 12 13 14 -15 -16 17 18 -19 -20 21 22 23 24 -25 26 27 28 29 30 31 -32 33 34 -35 36 37 38 0
1 -2 -3 4 5 -6 7 8 -9 -10 11 12 -13 14 15 16 17 18 -19 20 21 22 23 24 -25 -26 27 28 29 30 -31 32 33 -34 35 36 -37 38 0
1 2 3 4 5 6 7 8 -9 -10 11 12 -13 14 15 -16 17 18 -19 20 21 -22 -23 24 -25 -26 27 28 29 30 -31 -32 33 -34 35 36 37 38 0
1 2 3 4 5 6 7 -8 9 -10 11 12 13 -14 15 -16 17 18 -19 20 21 -22 23 24 -25 -26 27 28 29 30 -31 -32 -33 34 35 -36 -37 38 0
1 2 3 4 5 6 7 8 -9 -10 11 12 -13 14 15 -16 17 18 -19 20 21 -22 23 24 -25 -26 27 -28 29 30 -31 32 33 -34 35 36 -37 38 0
1 -2 -3 4 5 -6 7 8 9 10 11 -12 -13 -14 -15 -16 17 18 -19 20 21 -22 23 24 25 26 27 28 29 -30 31 32 33 -34 35 36 37 38 0
1 2 -3 -4 5 -6 7 8 -9 -10 11 12 -13 14 15 16 17 18 -19 20 21 22 23 24 -25 -26 27 28 29 30 -31 32 33 -34 35 36 -37 38 0
1 2 3 4 5 6 -7 8 9 10 -11 12 -13 -14 -15 -16 17 -18 19 20 21 22 23 -24 -25 -26 -27 -28 29 30 -31 32 33 34 35 36 37 38 0
1 2 3 4 5 6 7 8 9 10 -11 12 -13 -14 -15 -16 17 -18 19 20 21 22 -23 -24 -25 -26 -27 28 29 30 -31 32 -33 34 35 36 37 -38 0
1 2 -3 -4 5 -6 7 8 9 10 11 12 13 14 -15 16 17 18 19 -20 21 -22 23 24 -25 26 -27 28 -29 30 -31 -32 33 34 35 -36 -37 38 0
1 2 -3 -4 -5 6 7 -8 9 10 -11 12 13 -14 -15 -16 17 18 -19 20 21 22 23 24 -25 26 27 28 29 30 31 -32 33 34 -35 36 37 38 0
1 2 3 4 5 6 -7 8 9 10 -11 12 13 14 -15 16 -17 18 19 -20 21 -22 23 24 -25 26 -27 28 -29 30 -31 -32 33 34 35 -36 -37 38 0
1 2 3 4 5 6 7 8 9 10 -11 12 -13 -14 -15 -16 17 -18 19 20 21 22 -23 -24 -25 -26 -27 28 29 30 -31 32 33 34 -35 36 37 38 0
1 2 3 4 5 6 7 -8 9 -10 -11 12 13 -14 15 -16 -17 18 -19 20 21 22 23 24 -25 -26 -27 28 29 30 -31 32 -33 34 35 36 37 -38 0
1 2 -3 -4 5 -6 7 8 9 10 11 12 -13 -14 -15 -16 -17 -18 19 20 21 22 23 24 -25 26 27 -28 -29 30 31 -32 33 34 35 36 37 38 0
1 2 -3 -4 -5 6 7 -8 9 10 -11 12 13 -14 -15 -16 17 18 -19 20 21 22 23 24 -25 26 27 28 29 -30 31 32 33 -34 35 36 37 38 0
1 2 3 4 5 6 -7 8 9 10 -11 12 -13 -14 -15 -16 17 -18 19 20 21 22 23 24 -25 26 -27 -28 -29 30 -31 32 33 -34 35 36 37 38 0
1 2 -3 -4 5 -6 7 8 9 10 11 12 -13 -14 -15 -16 -17 18 -19 20 21 -22 23 24 25 26 27 28 29 30 31 32 -33 -34 35 -36 37 38 0
1 2 3 4 5 6 7 8 9 10 -11 12 -13 -14 -15 -16 -17 -18 19 20 21 22 23 -24 -25 -26 -27 -28 29 30 -31 32 33 34 35 36 37 38 0
1 2 3 4 5 6 -7 8 9 10 -11 12 -13 -14 -15 -16 17 -18 19 20 21 22 23 -24 -25 -26 -27 28 29 30 -31 32 -33 34 35 36 37 -38 0
1 2 3 4 5 6 7 8 9 10 -11 12 -13 -14 -15 -16 -17 -18 19 20 21 22 23 -24 -25 -26 -27 28 29 30 -31 32 -33 34 35 36 37 -38 0
1 2 3 4 5 6 7 8 9 10 -11 12 -13 -14 -15 -16 -17 -18 19 20 21 22 23 24 -25 26 -27 -28 -29 30 -31 32 33 -34 35 36 37 38 0
1 2 3 4 5 6 -7 8 9 10 -11 12 -13 -14 -15 -16 17 -18 19 20 21 22 23 24 -25 26 -27 -28 -29 30 -31 32 -33 34 35 36 37 -38 0
1 2 -3 -4 5 -6 7 8 9 10 11 -12 13 14 15 16 17 18 19 -20 -21 22 23 24 -25 26 -27 28 29 30 -31 32 33 -34 -35 36 37 -38 0
1 2 -3 -4 -5 6 7 -8 9 -10 11 -12 13 14 -15 16 -17 -18 -19 -20 21 22 23 24 25 26 27 28 29 30 31 32 33 34 35 36 -37 38 0
1 -2 -3 4 5 -6 7 8 -9 -10 11 -12 -13 14 15 -16 17 18 -19 20 21 -22 23 24 25 26 27 -28 29 30 31 32 33 34 35 36 37 -38 0
1 2 3 4 5 6 7 8 9 10 11 12 13 14 -15 16 -17 -18 -19 -20 -21 22 -23 24 25 26 27 28 -29 -30 -31 -32 33 34 35 -36 -37 38 0
1 -2 -3 4 5 -6 7 8 9 10 11 -12 13 14 15 16 17 18 19 -20 -21 22 23 -24 25 -26 27 28 29 -30 31 -32 -33 34 -35 36 37 -38 0
1 2 3 4 5 6 7 -8 9 -10 -11 12 13 14 -15 16 17 -18 -19 20 21 -22 -23 24 -25 -26 27 28 29 30 -31 32 -33 34 35 36 37 -38 0
1 -2 -3 4 5 -6 7 8 9 10 11 -12 13 14 15 16 17 -18 -19 -20 21 22 23 24 25 -26 27 28 -29 30 -31 32 33 -34 -35 36 37 -38 0
1 2 -3 -4 -5 6 7 -8 9 10 -11 12 13 -14 -15 16 17 18 -19 20 21 22 23 24 -25 -26 27 28 29 30 -31 32 -33 34 35 36 37 38 0
1 2 -3 -4 5 -6 7 8 9 10 11 12 13 14 15 -16 17 18 19 20 21 -22 -23 24 -25 -26 27 28 29 30 -31 32 33 -34 -35 36 37 -38 0
1 2 -3 -4 5 -6 7 8 9 10 11 12 13 14 15 16 17 -18 -19 -20 21 22 23 24 25 -26 27 -28 29 -30 31 -32 -33 34 35 -36 -37 38 0
1 2 3 4 5 6 7 -8 9 -10 -11 12 13 14 -15 16 17 -18 -19 20 21 -22 -23 24 -25 -26 27 28 29 30 -31 32 33 -34 35 36 37 38 0
1 2 3 4 5 6 7 8 9 10 -11 12 -13 -14 -15 -16 -17 -18 19 20 21 22 23 -24 -25 -26 -27 28 29 30 -31 32 33 34 35 36 37 -38 0
1 2 3 4 5 6 7 8 9 10 -11 12 13 14 15 -16 -17 18 19 -20 -21 22 23 -24 25 -26 27 -28 29 -30 31 -32 -33 34 35 -36 -37 38 0
1 2 3 4 5 6 7 8 9 10 -11 12 -13 -14 -15 -16 17 -18 19 20 21 22 23 -24 -25 -26 -27 -28 29 30 -31 32 33 34 35 36 37 -38 0
1 2 -3 -4 5 -6 7 8 -9 -10 11 12 -13 14 15 -16 -17 18 -19 20 21 -22 23 24 25 26 27 -28 29 30 31 32 33 34 35 36 37 -38 0
1 2 3 4 5 6 -7 8 9 10 -11 12 13 14 15 16 -17 18 19 -20 -21 -22 23 -24 25 26 27 -28 -29 -30 31 32 33 -34 -35 36 37 -38 0
1 2 -3 -4 -5 6 7 8 9 -10 -11 12 13 14 -15 16 17 18 19 20 21 -22 -23 24 -25 26 -27 28 29 -30 31 32 33 34 35 36 37 -38 0
1 -2 -3 4 5 -6 7 8 9 10 11 -12 13 14 15 16 17 18 19 -20 -21 22 23 24 -25 26 -27 28 29 30 -31 32 33 -34 -35 36 37 -38 0
1 2 -3 -4 5 -6 7 8 -9 -10 11 12 -13 14 15 16 17 18 -19 20 21 22 23 24 25 26 27 -28 29 30 -31 32 33 -34 -35 36 37 -38 0
1 2 -3 -4 -5 6 7 -8 9 10 -11 12 13 14 -15 -16 17 18 -19 -20 21 22 -23 24 25 -26 27 28 -29 30 31 32 33 34 35 36 37 38 0
1 2 3 4 5 6 7 -8 9 -10 -11 12 13 -14 15 -16 17 18 -19 20 21 22 -23 24 -25 -26 -27 28 29 30 -31 32 -33 34 35 36 37 38 0
1 -2 -3 4 5 -6 7 8 -9 -10 11 12 -13 14 15 -16 -17 18 -19 20 21 -22 23 24 25 26 27 -28 29 30 31 32 33 34 35 36 37 -38 0
1 -2 -3 4 5 -6 7 8 9 10 11 -12 -13 -14 -15 -16 17 18 -19 20 21 -22 23 24 25 26 27 -28 29 30 31 32 33 34 35 36 37 -38 0
1 2 3 4 5 6 7 8 -9 -10 11 12 -13 14 15 -16 17 18 -19 20 -21 22 23 -24 25 -26 -27 -28 -29 30 31 32 33 -34 35 -36 37 38 0
1 2 -3 -4 5 -6 7 8 9 10 11 -12 -13 -14 -15 -16 17 18 -19 20 21 -22 23 24 25 26 27 -28 29 30 31 32 33 34 35 36 37 -38 0
1 2 -3 -4 -5 6 7 -8 9 10 -11 12 13 -14 -15 -16 17 18 -19 20 21 22 23 24 -25 26 27 28 -29 30 31 32 33 34 35 36 -37 38 0
1 2 3 4 5 6 7 -8 9 -10 -11 12 13 14 -15 16 17 -18 -19 20 -21 22 23 -24 25 -26 27 -28 29 -30 31 -32 33 34 35 36 37 -38 0
1 2 -3 -4 -5 6 7 8 9 -10 11 -12 13 14 -15 16 -17 -18 -19 -20 21 22 23 24 25 26 27 28 29 30 31 32 -33 -34 35 -36 37 38 0
1 2 -3 -4 -5 6 7 -8 9 10 -11 -12 13 -14 15 -16 17 18 -19 -20 21 22 23 24 25 -26 27 28 -29 30 31 32 33 34 35 36 37 38 0
1 2 3 4 5 6 7 8 9 10 -11 12 -13 -14 -15 -16 17 18 -19 20 21 22 23 24 25 26 -27 -28 29 -30 31 32 33 -34 -35 36 37 -38 0
1 2 3 4 5 6 7 -8 9 -10 -11 12 13 -14 15 -16 17 18 -19 20 21 22 -23 24 25 26 27 28 29 -30 -31 -32 33 34 35 -36 -37 38 0
1 2 -3 -4 -5 6 7 8 9 -10 11 -12 13 14 -15 16 -17 -18 -19 -20 21 22 23 24 25 26 27 28 29 30 31 -32 33 34 -35 36 37 38 0
1 2 -3 -4 5 -6 7 8 9 10 11 -12 13 14 15 16 17 18 19 -20 -21 22 23 -24 25 -26 27 28 29 -30 31 -32 -33 34 -35 36 37 -38 0
1 -2 -3 4 5 -6 7 8 9 10 11 -12 13 14 15 16 17 18 19 -20 21 22 23 -24 25 -26 27 -28 29 -30 31 -32 -33 34 35 -36 -37 38 0
1 2 3 4 5 6 -7 8 9 10 -11 12 13 14 -15 16 -17 -18 -19 -20 -21 22 23 24 25 26 -27 -28 29 -30 31 32 33 -34 35 36 37 38 0
1 2 -3 -4 -5 6 7 -8 9 -10 -11 12 13 14 -15 16 17 -18 -19 20 21 -22 23 24 -25 -26 27 28 29 30 31 32 33 34 35 36 37 38 0
1 2 3 4 5 6 7 8 9 10 11 12 -13 -14 -15 16 -17 -18 19 20 -21 22 -23 -24 25 -26 27 28 -29 30 -31 -32 33 -34 35 36 37 38 0
1 2 -3 -4 -5 6 7 8 -9 10 -11 -12 -13 14 15 -16 17 -18 19 20 21 -22 23 24 25 26 27 -28 29 30 31 32 33 34 35 36 -37 38 0
1 2 3 4 5 6 7 -8 9 -10 -11 12 13 -14 15 -16 17 18 -19 20 21 22 23 24 -25 -26 27 28 29 30 -31 32 33 -34 -35 36 37 -38 0
1 2 -3 -4 -5 6 7 -8 9 -10 -11 12 13 14 -15 16 17 -18 -19 20 -21 22 23 24 -25 26 27 28 29 30 31 32 33 34 35 36 -37 38 0
1 2 -3 -4 5 -6 7 8 9 10 11 -12 13 14 15 16 17 -18 -19 -20 21 22 23 24 25 -26 27 28 -29 30 -31 32 33 -34 -35 36 37 -38 0
1 2 3 4 5 6 7 8 -9 -10 11 12 -13 14 15 -16 17 18 -19 20 -21 22 23 -24 25 -26 -27 28 29 30 -31 32 -33 34 35 -36 -37 38 0
1 2 -3 -4 -5 6 7 8 -9 10 -11 -12 13 -14 15 -16 17 18 19 -20 21 -22 23 24 25 -26 27 28 29 30 31 32 33 34 35 36 37 -38 0
1 2 3 4 5 6 -7 8 9 10 -11 12 -13 -14 -15 -16 17 -18 19 20 21 22 -23 24 -25 26 -27 28 -29 30 -31 32 -33 34 35 36 37 38 0
1 2 3 4 5 6 7 -8 9 -10 -11 12 13 14 -15 -16 17 -18 -19 20 21 22 23 24 -25 -26 -27 28 29 30 -31 32 -33 34 35 36 37 -38 0
1 2 -3 -4 -5 6 7 -8 9 10 -11 -12 13 -14 15 -16 17 18 -19 20 -21 22 23 24 -25 26 27 28 29 30 31 32 33 34 35 36 37 -38 0
1 2 -3 -4 -5 6 7 -8 9 -10 11 -12 13 14 15 -16 17 18 -19 -20 21 -22 23 24 25 -26 27 28 -29 30 31 32 33 34 35 36 37 38 0
1 2 3 4 5 6 -7 8 9 10 -11 12 -13 -14 -15 -16 17 18 -19 20 21 22 23 24 25 26 -27 -28 29 -30 31 32 33 -34 35 -36 37 38 0
1 2 3 4 5 6 7 8 9 10 -11 12 -13 -14 -15 -16 -17 18 -19 20 21 22 23 24 25 26 -27 -28 29 -30 31 32 33 -34 35 -36 37 38 0
1 -2 -3 4 5 -6 7 8 9 10 11 -12 13 14 15 16 17 18 19 20 21 22 -23 -24 -25 26 -27 28 -29 30 -31 32 33 -34 -35 36 37 -38 0
1 2 3 4 5 6 7 -8 9 -10 -11 12 13 -14 15 -16 17 18 -19 20 21 22 23 24 -25 -26 -27 -28 29 30 -31 32 33 34 35 36 37 -38 0
1 -2 -3 4 5 -6 7 8 9 10 11 -12 13 14 15 16 17 18 19 20 21 22 -23 -24 -25 26 -27 28 -29 30 -31 -32 33 34 35 -36 -37 38 0
1 2 -3 -4 5 -6 7 8 9 10 11 -12 13 14 15 16 17 18 19 -20 21 22 23 -24 25 -26 27 -28 29 -30 31 -32 -33 34 35 -36 -37 38 0
1 2 3 4 5 6 7 8 9 10 -11 12 -13 -14 -15 -16 17 -18 19 20 21 22 -23 -24 -25 -26 -27 28 29 30 -31 32 -33 34 35 36 37 38 0
1 2 3 4 5 6 7 8 -9 -10 11 12 -13 14 15 -16 17 18 -19 20 -21 22 23 -24 25 -26 -27 28 29 30 31 32 -33 -34 -35 36 37 -38 0
1 2 3 4 5 6 -7 8 9 10 -11 12 13 14 15 -16 17 18 19 -20 -21 22 -23 -24 25 -26 27 28 29 -30 31 -32 -33 34 -35 36 37 -38 0
1 2 -3 -4 -5 6 7 -8 9 10 -11 12 13 14 -15 -16 17 -18 -19 20 -21 22 23 24 25 -26 27 28 -29 30 31 32 33 34 35 36 37 -38 0
1 2 3 4 5 6 -7 8 9 10 -11 12 13 14 -15 16 -17 18 19 -20 21 -22 23 24 -25 26 27 -28 -29 30 31 32 -33 -34 -35 36 37 -38 0
1 2 -3 -4 5 -6 7 8 9 10 11 12 13 14 15 16 17 18 19 -20 -21 22 -23 24 25 -26 27 -28 29 -30 31 32 33 -34 -35 36 37 -38 0
1 2 -3 -4 -5 6 7 8 -9 10 -11 -12 -13 14 15 -16 17 18 -19 20 -21 22 23 24 -25 26 27 28 29 30 31 32 33 34 35 36 37 -38 0
1 2 3 4 5 6 7 8 -9 -10 11 12 -13 14 15 -16 17 18 -19 20 -21 22 23 -24 25 -26 -27 -28 29 30 31 32 -33 -34 35 -36 37 38 0
1 2 3 4 5 6 7 8 9 10 -11 12 -13 -14 -15 -16 -17 -18 19 20 21 22 23 24 -25 26 -27 -28 -29 30 -31 32 -33 34 35 36 37 38 0
1 2 -3 -4 -5 6 7 -8 9 10 -11 12 13 -14 -15 -16 17 18 -19 20 21 22 23 24 -25 26 27 28 29 -30 31 32 33 34 35 36 37 -38 0
1 2 -3 -4 5 -6 7 8 9 10 11 -12 13 14 15 16 17 18 19 20 21 22 -23 -24 -25 26 -27 28 -29 30 -31 -32 33 34 35 -36 -37 38 0
1 2 3 4 5 6 7 8 9 10 11 12 -13 -14 -15 16 -17 -18 19 20 -21 22 -23 -24 25 26 27 28 -29 -30 -31 -32 33 34 35 36 -37 38 0
1 2 3 4 5 6 7 -8 9 -10 -11 12 13 14 -15 16 17 -18 -19 20 21 -22 23 24 -25 -26 27 28 29 30 -31 -32 33 -34 35 36 37 38 0
1 2 3 4 5 6 -7 8 9 10 -11 12 13 14 15 -16 17 18 19 -20 21 -22 -23 -24 25 -26 27 28 29 -30 31 -32 -33 34 -35 36 37 -38 0
1 2 3 4 5 6 7 -8 9 -10 -11 12 13 -14 15 -16 17 18 -19 20 21 22 -23 24 -25 -26 -27 28 29 30 -31 32 33 34 35 36 37 -38 0
1 2 3 4 5 6 7 -8 9 -10 -11 12 13 14 -15 16 17 -18 -19 20 21 -22 23 24 -25 -26 -27 28 29 30 31 32 -33 -34 35 -36 37 38 0
1 2 3 4 5 6 -7 8 9 10 -11 12 13 14 -15 16 -17 -18 -19 -20 -21 22 23 24 25 26 27 -28 29 -30 -31 32 33 -34 35 36 37 38 0
1 -2 -3 4 5 -6 7 8 -9 -10 11 12 -13 14 15 16 17 18 -19 20 21 22 23 24 25 26 27 -28 29 30 -31 32 33 -34 -35 36 37 -38 0
1 2 -3 -4 -5 6 7 -8 9 10 -11 12 13 -14 -15 -16 17 18 -19 20 21 22 23 24 -25 26 27 28 29 -30 31 32 -33 34 35 36 37 38 0
1 2 3 4 5 6 7 8 9 10 -11 12 -13 -14 -15 -16 17 -18 19 20 21 22 -23 -24 -25 -26 -27 28 29 30 -31 32 33 34 35 36 37 -38 0
1 2 3 4 5 6 -7 8 9 10 -11 12 -13 -14 -15 -16 17 -18 19 20 21 22 23 -24 -25 -26 -27 28 29 30 -31 32 33 34 35 36 37 -38 0
1 2 3 4 5 6 -7 8 9 10 -11 12 -13 -14 -15 -16 17 -18 19 20 21 22 23 24 -25 26 -27 -28 -29 30 -31 32 -33 34 35 36 37 38 0
1 2 3 4 5 6 7 -8 9 -10 -11 12 13 -14 15 -16 -17 18 -19 20 21 22 23 24 -25 -26 -27 28 29 30 -31 32 -33 34 35 36 37 38 0
1 2 3 4 5 6 7 -8 9 -10 -11 12 13 14 -15 -16 17 -18 -19 20 21 22 23 24 -25 -26 -27 28 29 30 -31 32 33 34 -35 36 37 38 0
1 2 3 4 5 6 7 8 9 10 -11 12 -13 -14 -15 -16 -17 -18 19 20 21 22 23 -24 -25 -26 -27 28 29 30 -31 32 -33 34 35 36 37 38 0
1 2 3 4 5 6 -7 8 9 10 -11 12 -13 -14 -15 -16 17 -18 19 20 21 22 23 -24 -25 -26 -27 28 29 30 -31 32 -33 34 35 36 37 38 0
1 2 3 4 5 6 7 -8 9 -10 -11 12 13 -14 15 -16 -17 18 -19 20 21 22 23 24 -25 -26 -27 28 29 30 -31 32 33 34 35 36 37 -38 0
1 2 3 4 5 6 -7 8 9 10 -11 12 13 14 -15 16 -17 18 19 20 -21 22 23 -24 -25 26 -27 -28 29 30 -31 32 -33 34 35 -36 -37 38 0
1 2 3 4 5 6 7 -8 9 -10 -11 12 13 14 -15 -16 17 -18 -19 20 21 22 23 24 -25 -26 -27 -28 29 30 -31 32 33 34 35 36 37 38 0
1 2 -3 -4 5 -6 7 8 9 10 11 -12 13 14 15 16 17 18 19 20 21 22 -23 -24 -25 26 -27 28 -29 30 -31 32 33 -34 -35 36 37 -38 0
1 -2 -3 4 5 -6 7 8 -9 -10 11 12 -13 14 15 16 17 18 -19 20 21 22 23 24 -25 -26 27 28 29 30 -31 32 33 -34 35 36 37 38 0
1 2 3 4 5 6 -7 8 9 10 -11 12 13 14 15 -16 -17 18 19 -20 -21 22 23 -24 25 -26 27 -28 29 -30 31 -32 33 34 35 36 37 -38 0
1 2 -3 -4 -5 6 7 8 -9 10 -11 -12 -13 14 15 -16 17 -18 19 20 21 -22 23 24 25 26 27 -28 29 30 31 32 33 34 35 36 37 -38 0
1 -2 -3 4 5 -6 7 8 -9 -10 11 -12 -13 14 15 -16 17 18 -19 20 21 -22 23 24 25 26 27 -28 29 30 31 32 33 34 35 36 37 38 0
1 2 3 4 5 6 7 8 -9 -10 11 12 -13 14 15 -16 17 18 -19 20 21 -22 -23 24 -25 -26 27 28 29 30 -31 32 -33 34 35 36 37 -38 0
1 2 -3 -4 5 -6 7 8 -9 -10 11 12 13 -14 15 16 17 18 19 -20 21 -22 23 24 25 -26 -27 28 29 30 31 32 33 34 35 36 -37 38 0
1 2 -3 -4 5 -6 7 8 9 10 11 -12 13 14 15 16 17 -18 -19 -20 21 22 23 24 25 -26 27 -28 29 -30 31 -32 33 34 35 36 37 -38 0
1 2 3 4 5 6 7 8 9 10 11 -12 13 14 15 -16 17 -18 -19 -20 21 22 -23 24 25 -26 -27 28 -29 30 31 -32 -33 34 35 -36 -37 38 0
1 -2 -3 4 5 -6 7 8 -9 -10 11 12 13 -14 15 16 17 18 19 -20 21 -22 23 24 25 -26 -27 28 29 30 31 32 33 34 35 36 -37 38 0
1 2 3 4 5 6 7 -8 9 -10 -11 12 13 -14 15 -16 17 18 -19 20 21 22 -23 24 25 26 27 28 29 -30 -31 -32 33 34 35 36 -37 38 0
1 -2 -3 4 5 -6 7 8 9 10 11 -12 13 14 15 16 17 18 19 -20 -21 22 23 24 25 -26 27 28 29 -30 31 -32 -33 34 -35 36 37 -38 0
1 -2 -3 4 5 -6 7 8 9 10 11 -12 -13 -14 -15 -16 17 18 -19 20 21 -22 23 24 25 26 27 28 29 30 31 32 33 34 35 36 -37 38 0
1 2 -3 -4 5 -6 7 8 9 10 11 12 13 14 15 -16 17 18 19 20 21 -22 -23 24 -25 -26 27 28 29 30 -31 -32 33 -34 35 36 37 38 0
1 2 3 4 5 6 7 -8 9 -10 -11 12 13 14 -15 16 17 -18 -19 20 21 -22 -23 24 -25 -26 27 28 29 30 -31 32 -33 34 35 36 37 38 0
1 2 -3 -4 5 -6 7 8 -9 -10 11 12 -13 14 15 16 17 18 -19 20 21 22 23 24 -25 -26 27 28 29 30 -31 32 33 -34 35 36 37 38 0
1 2 -3 -4 5 -6 7 8 -9 -10 11 12 -13 14 15 -16 -17 18 -19 20 21 -22 23 24 25 26 27 -28 29 30 31 32 33 34 35 36 37 38 0
1 -2 -3 4 5 -6 7 8 9 10 11 -12 13 14 15 16 17 -18 -19 -20 21 22 23 24 25 -26 27 28 -29 30 -31 32 33 -34 35 36 -37 38 0
1 -2 -3 4 5 -6 7 8 9 10 11 -12 13 14 15 16 17 -18 -19 -20 21 22 23 24 25 -26 27 -28 29 -30 31 -32 33 34 35 36 37 -38 0
1 2 -3 -4 5 -6 7 8 -9 -10 11 12 -13 14 15 16 17 18 -19 20 21 22 23 24 25 26 27 -28 29 30 -31 32 33 -34 35 36 -37 38 0
1 2 3 4 5 6 7 -8 9 -10 -11 12 13 14 -15 -16 17 -18 -19 20 21 22 23 24 -25 -26 -27 28 29 30 -31 32 33 34 35 36 37 -38 0
1 2 -3 -4 -5 6 7 8 -9 10 -11 12 13 -14 15 -16 17 18 19 -20 -21 22 23 24 25 26 27 28 29 30 31 32 -33 -34 35 -36 37 38 0
1 2 -3 -4 -5 6 7 8 -9 10 -11 -12 13 -14 15 -16 17 18 19 -20 -21 22 23 24 25 26 27 28 29 30 31 32 33 34 35 36 -37 38 0
1 2 -3 -4 5 -6 7 8 -9 -10 11 12 -13 14 15 -16 -17 18 -19 20 21 -22 23 24 25 26 27 28 29 30 31 32 33 34 35 36 -37 38 0
1 2 -3 -4 5 -6 7 8 9 10 11 12 13 14 15 -16 17 18 19 20 21 -22 -23 24 -25 -26 27 28 29 30 -31 32 33 -34 35 36 -37 38 0
1 2 -3 -4 -5 6 7 8 -9 10 -11 12 -13 14 15 -16 17 18 -19 20 -21 22 23 24 -25 26 27 28 29 30 31 32 33 34 35 36 -37 38 0
1 2 3 4 5 6 7 8 9 10 11 12 13 14 -15 16 -17 -18 -19 -20 -21 22 -23 24 25 26 27 28 -29 -30 31 -32 -33 34 -35 36 37 -38 0
1 2 -3 -4 5 -6 7 8 -9 -10 11 12 -13 14 15 16 17 18 -19 20 21 22 -23 24 25 26 -27 28 29 30 31 -32 33 34 35 36 -37 38 0
1 2 -3 -4 -5 6 7 -8 9 -10 11 -12 13 14 -15 16 -17 -18 -19 -20 21 22 23 24 25 26 27 28 29 30 31 32 33 34 35 36 37 -38 0
1 2 -3 -4 -5 6 7 8 9 -10 -11 12 13 14 -15 16 17 18 19 20 21 -22 -23 24 25 26 27 28 29 30 -31 -32 33 -34 35 36 37 38 0
1 2 -3 -4 5 -6 7 8 9 10 11 12 -13 -14 -15 -16 -17 18 -19 20 21 -22 23 24 25 26 27 28 29 30 31 32 33 34 35 36 -37 38 0
1 2 -3 -4 -5 6 7 -8 9 10 -11 12 13 -14 -15 -16 17 18 -19 20 21 22 23 24 -25 26 27 28 -29 30 31 32 33 34 35 36 37 -38 0
1 2 3 4 5 6 7 8 9 10 11 12 -13 -14 -15 16 17 -18 19 20 21 -22 23 -24 -25 -26 -27 28 29 30 31 32 -33 -34 -35 36 37 -38 0
1 2 3 4 5 6 7 8 9 10 11 12 -13 -14 -15 16 17 -18 19 20 21 -22 23 -24 -25 -26 27 28 29 30 -31 -32 -33 34 35 -36 -37 38 0
1 2 -3 -4 -5 6 7 8 -9 10 -11 12 13 -14 15 -16 17 18 19 -20 -21 22 23 24 25 26 27 28 29 30 31 -32 33 34 -35 36 37 38 0
1 2 3 4 5 6 7 8 9 10 -11 12 -13 -14 -15 -16 17 -18 19 20 21 22 -23 24 -25 26 -27 28 -29 30 -31 32 -33 34 35 36 37 -38 0
1 2 -3 -4 -5 6 7 -8 9 -10 -11 12 13 14 -15 16 17 -18 -19 20 -21 22 23 24 -25 26 27 28 29 30 31 32 33 34 35 36 37 -38 0
1 2 -3 -4 -5 6 7 8 9 -10 -11 12 13 14 -15 16 17 18 19 20 21 -22 23 24 -25 26 -27 28 29 -30 31 32 33 34 35 36 -37 38 0
1 2 -3 -4 -5 6 7 -8 9 10 -11 12 13 14 -15 -16 17 -18 -19 20 -21 22 23 24 25 -26 27 28 -29 30 31 32 33 34 35 36 37 38 0
1 2 3 4 5 6 7 8 9 10 11 12 -13 -14 -15 16 17 -18 19 20 21 -22 23 -24 -25 -26 -27 28 29 30 31 -32 33 -34 35 36 -37 38 0
1 2 3 4 5 6 -7 8 9 10 -11 12 13 14 15 -16 -17 18 19 20 21 22 23 24 -25 -26 -27 -28 29 30 31 32 -33 -34 -35 36 37 -38 0
1 2 -3 -4 5 -6 7 8 9 10 11 -12 13 14 15 16 17 -18 -19 -20 21 22 23 24 25 -26 27 28 -29 30 -31 32 33 -34 35 36 -37 38 0
1 2 3 4 5 6 7 -8 9 -10 -11 12 13 14 -15 16 17 -18 -19 20 -21 22 23 24 25 -26 27 -28 -29 30 -31 32 33 -34 35 36 37 38 0
1 2 -3 -4 -5 6 7 -8 9 10 -11 -12 13 -14 15 -16 17 18 -19 20 -21 22 23 24 -25 26 27 28 29 30 31 32 33 34 35 36 37 38 0
1 2 3 4 5 6 -7 8 9 10 -11 12 -13 -14 -15 -16 17 18 -19 20 21 22 -23 24 25 26 -27 28 29 30 31 -32 33 34 35 36 -37 38 0
1 2 -3 -4 -5 6 7 8 -9 10 -11 -12 13 -14 15 -16 17 18 19 -20 21 -22 23 24 25 -26 27 28 29 30 31 32 33 34 35 36 37 38 0
1 2 -3 -4 5 -6 7 8 9 10 11 -12 -13 -14 -15 -16 17 18 -19 20 21 -22 23 24 25 26 27 -28 29 30 31 32 33 34 35 36 37 38 0
1 2 3 4 5 6 7 8 9 10 -11 12 -13 -14 -15 -16 -17 18 -19 20 21 22 23 24 25 26 -27 -28 29 30 -31 32 33 34 -35 36 37 38 0
1 2 -3 -4 5 -6 7 8 9 10 11 -12 -13 -14 -15 -16 17 18 -19 20 21 -22 23 24 25 26 27 28 29 30 31 32 33 34 35 36 -37 38 0
1 2 3 4 5 6 7 8 9 10 -11 12 -13 -14 -15 -16 -17 -18 19 20 21 22 23 24 -25 26 27 -28 -29 30 31 -32 33 34 35 36 -37 38 0
1 2 3 4 5 6 7 -8 9 -10 -11 12 13 -14 15 -16 17 18 -19 20 21 22 23 24 -25 -26 -27 -28 29 30 -31 32 33 34 35 36 37 38 0
1 2 -3 -4 5 -6 7 8 9 10 11 12 13 14 15 16 17 18 19 20 21 -22 23 24 -25 -26 -27 -28 29 30 31 32 -33 -34 -35 36 37 -38 0
1 2 3 4 5 6 7 8 -9 -10 11 12 -13 14 15 -16 17 18 -19 20 -21 -22 23 24 -25 26 27 -28 29 30 -31 32 33 34 -35 36 37 38 0
1 2 3 4 5 6 -7 8 9 10 -11 12 13 14 15 16 -17 18 19 -20 21 22 23 24 -25 -26 -27 -28 29 30 31 32 -33 -34 -35 36 37 -38 0
1 2 3 4 5 6 7 -8 9 -10 11 12 13 -14 15 -16 17 18 -19 20 21 -22 23 24 -25 -26 27 -28 29 30 -31 32 33 -34 35 36 37 38 0
1 -2 -3 4 5 -6 7 8 -9 -10 11 12 -13 14 15 16 17 18 -19 20 21 22 -23 24 25 26 -27 28 29 30 31 -32 33 34 35 36 -37 38 0
1 2 3 4 5 6 7 -8 9 -10 -11 12 13 14 -15 16 17 -18 -19 20 -21 22 23 -24 25 -26 27 -28 29 -30 31 -32 33 34 35 36 37 38 0
1 2 3 4 5 6 7 8 9 10 11 12 13 14 -15 16 -17 -18 -19 -20 -21 22 -23 24 25 26 27 28 29 -30 -31 -32 33 34 35 -36 -37 38 0
1 2 -3 -4 -5 6 7 -8 9 -10 11 -12 13 14 -15 16 -17 18 -19 -20 21 22 23 24 25 26 27 28 29 30 31 32 33 34 35 36 -37 38 0
1 2 -3 -4 5 -6 7 8 9 10 11 12 13 14 15 -16 17 18 19 20 21 -22 -23 24 -25 -26 27 28 29 30 -31 32 -33 34 35 -36 -37 38 0
1 2 3 4 5 6 7 8 9 10 -11 12 -13 -14 -15 -16 17 -18 19 20 21 22 23 -24 -25 -26 -27 28 29 30 -31 32 -33 34 35 36 37 -38 0
1 2 3 4 5 6 -7 8 9 10 -11 12 13 14 15 16 -17 18 19 -20 -21 -22 23 -24 25 26 -27 28 -29 30 31 32 -33 -34 -35 36 37 -38 0
1 2 -3 -4 -5 6 7 8 -9 10 -11 -12 -13 14 15 -16 17 18 -19 20 -21 22 23 24 -25 26 27 28 29 30 31 32 33 34 35 36 37 38 0
1 -2 -3 4 5 -6 7 8 9 10 11 -12 -13 -14 -15 -16 17 18 -19 20 21 -22 23 24 25 26 27 -28 29 30 31 32 33 34 35 36 37 38 0
1 2 3 4 5 6 -7 8 9 10 -11 12 -13 -14 -15 -16 17 -18 19 20 21 22 23 -24 -25 -26 -27 28 29 30 -31 32 33 34 35 36 37 38 0
1 2 3 4 5 6 7 8 9 10 11 12 13 14 -15 16 -17 -18 -19 -20 -21 22 -23 24 25 26 27 28 -29 -30 -31 -32 33 34 35 36 -37 38 0
1 2 3 4 5 6 -7 8 9 10 -11 12 13 14 15 -16 17 18 19 -20 -21 22 23 -24 25 26 -27 -28 -29 30 31 32 -33 -34 -35 36 37 -38 0
1 2 3 4 5 6 7 8 -9 -10 11 12 -13 14 15 -16 17 -18 19 20 -21 -22 23 24 25 26 27 28 29 -30 -31 -32 33 34 35 -36 -37 38 0
1 2 3 4 5 6 7 8 9 10 -11 12 13 14 15 -16 -17 18 19 -20 -21 22 23 24 25 -26 27 -28 29 -30 31 -32 -33 34 35 -36 -37 38 0
1 -2 -3 4 5 -6 7 8 -9 -10 11 12 -13 14 15 16 17 18 -19 20 21 22 23 24 25 26 27 -28 29 30 -31 32 33 -34 35 36 -37 38 0
1 2 -3 -4 5 -6 7 8 -9 -10 11 12 -13 14 15 16 17 18 -19 20 21 22 23 -24 25 -26 27 28 -29 30 -31 32 33 -34 35 36 37 38 0
1 2 -3 -4 -5 6 7 -8 9 10 -11 12 13 -14 -15 -16 17 18 -19 20 21 22 23 24 -25 26 27 28 29 30 31 32 33 34 35 36 -37 38 0
1 2 -3 -4 -5 6 7 -8 9 10 -11 12 13 -14 -15 -16 17 18 -19 20 21 22 23 24 -25 26 27 28 29 -30 31 32 33 34 35 36 37 38 0
1 2 3 4 5 6 7 8 9 10 11 12 -13 -14 -15 16 17 -18 19 20 21 -22 23 24 -25 26 -27 -28 -29 30 31 32 -33 -34 -35 36 37 -38 0
1 2 -3 -4 -5 6 7 8 9 -10 -11 12 13 14 -15 16 17 18 19 20 21 -22 -23 24 -25 26 -27 28 29 -30 31 32 33 34 35 36 37 38 0
1 2 3 4 5 6 7 8 9 10 -11 12 -13 -14 -15 -16 17 -18 19 20 21 22 23 24 -25 26 -27 -28 -29 30 -31 32 33 -34 35 36 37 38 0
1 2 3 4 5 6 7 -8 9 -10 11 12 13 -14 15 -16 17 18 -19 20 21 -22 -23 24 -25 -26 27 28 29 30 -31 32 -33 34 35 36 37 -38 0
1 2 3 4 5 6 -7 8 9 10 -11 12 -13 -14 -15 -16 17 18 -19 20 21 22 23 24 25 26 -27 -28 29 -30 31 32 33 -34 35 36 37 38 0
1 2 3 4 5 6 -7 8 9 10 -11 12 -13 -14 -15 -16 17 18 -19 20 21 22 23 24 25 26 -27 -28 29 30 -31 32 33 34 -35 36 37 38 0
1 2 3 4 5 6 7 8 -9 -10 11 12 -13 14 15 -16 17 18 -19 20 -21 22 23 24 -25 26 -27 -28 29 30 -31 32 33 -34 35 36 37 38 0
1 2 3 4 5 6 7 8 9 10 -11 12 13 14 15 -16 -17 18 19 -20 -21 22 23 -24 25 26 -27 -28 -29 30 31 32 -33 -34 -35 36 37 -38 0
1 2 -3 -4 5 -6 7 8 9 10 11 -12 13 14 15 16 17 18 19 -20 -21 22 23 24 25 -26 27 28 29 -30 31 -32 -33 34 -35 36 37 -38 0
1 2 3 4 5 6 7 -8 9 -10 -11 12 13 14 -15 16 17 -18 -19 20 -21 22 23 -24 25 -26 -27 28 29 30 -31 32 -33 34 35 36 37 -38 0
1 -2 -3 4 5 -6 7 8 -9 -10 11 12 -13 14 15 -16 -17 18 -19 20 21 -22 23 24 25 26 27 28 29 30 31 32 33 34 35 36 -37 38 0
1 2 3 4 5 6 7 8 -9 -10 11 12 -13 14 15 -16 17 18 -19 20 21 -22 -23 24 25 26 27 28 29 30 -31 -32 -33 34 35 -36 -37 38 0
1 2 3 4 5 6 7 -8 9 -10 -11 12 13 14 -15 16 17 -18 -19 20 -21 22 23 -24 25 -26 -27 28 29 30 31 32 -33 -34 35 -36 37 38 0
1 2 3 4 5 6 7 8 9 10 -11 12 -13 -14 -15 -16 17 -18 19 20 21 22 23 24 -25 26 -27 -28 -29 30 -31 32 -33 34 35 36 37 -38 0
1 2 3 4 5 6 7 8 -9 -10 11 12 -13 14 15 -16 17 -18 19 20 -21 22 23 -24 -25 26 -27 -28 29 30 -31 32 -33 34 35 36 37 -38 0
1 2 -3 -4 -5 6 7 -8 9 10 -11 12 13 14 -15 -16 17 18 -19 -20 21 22 23 24 -25 26 27 28 29 30 31 32 33 34 35 36 -37 38 0
1 2 3 4 5 6 7 -8 9 -10 -11 12 13 14 -15 -16 17 -18 -19 20 21 22 23 24 -25 -26 -27 28 29 30 -31 32 -33 34 35 36 37 38 0
1 2 3 4 5 6 -7 8 9 10 -11 12 13 14 15 -16 -17 18 19 -20 -21 22 23 -24 25 26 -27 -28 -29 30 -31 32 -33 34 35 36 37 -38 0
1 2 -3 -4 5 -6 7 8 9 10 11 12 13 14 15 -16 17 18 19 20 21 -22 -23 24 25 26 27 28 -29 -30 -31 -32 33 34 35 -36 -37 38 0
1 2 -3 -4 5 -6 7 8 -9 -10 11 12 -13 14 15 16 17 18 -19 20 21 22 23 24 -25 -26 27 28 29 30 -31 32 -33 34 35 36 37 -38 0
1 2 3 4 5 6 7 8 -9 -10 11 12 -13 14 15 -16 17 18 -19 20 21 -22 -23 24 -25 -26 27 28 29 30 -31 32 33 -34 35 36 37 38 0
1 2 3 4 5 6 7 -8 9 -10 -11 12 13 -14 15 -16 17 18 -19 20 21 22 -23 24 -25 -26 -27 28 29 30 -31 32 33 34 35 36 37 38 0
1 2 3 4 5 6 7 8 -9 -10 11 12 -13 14 15 -16 17 18 -19 20 -21 22 23 -24 25 26 -27 -28 -29 30 -31 32 -33 34 35 36 37 -38 0
1 -2 -3 4 5 -6 7 8 -9 -10 11 12 -13 14 15 16 17 18 -19 20 21 22 23 -24 25 -26 27 28 -29 30 -31 32 33 -34 35 36 37 38 0
1 2 3 4 5 6 7 8 9 10 -11 12 -13 -14 -15 -16 -17 18 -19 20 21 22 23 24 25 26 -27 -28 29 -30 31 32 33 -34 35 36 37 38 0
1 -2 -3 4 5 -6 7 8 -9 -10 11 12 -13 14 15 -16 -17 18 -19 20 21 -22 23 24 25 26 27 -28 29 30 31 32 33 34 35 36 37 38 0
1 -2 -3 4 5 -6 7 8 -9 -10 11 12 -13 14 15 16 17 18 -19 20 21 22 -23 24 25 26 -27 28 29 30 -31 32 33 34 -35 36 37 38 0
1 2 -3 -4 5 -6 7 8 -9 -10 11 12 -13 14 15 16 17 18 -19 20 21 22 -23 24 25 26 -27 28 29 30 -31 32 33 34 -35 36 37 38 0
1 2 3 4 5 6 7 8 9 10 -11 12 -13 -14 -15 -16 17 -18 19 20 21 22 23 -24 -25 -26 -27 28 29 30 -31 32 33 34 -35 36 37 38 0
1 2 -3 -4 -5 6 7 -8 9 10 -11 12 13 -14 15 -16 17 18 -19 20 -21 22 23 24 -25 26 27 28 29 30 31 32 33 34 35 36 -37 38 0
1 2 3 4 5 6 7 8 9 10 11 12 -13 -14 -15 16 17 -18 19 20 21 -22 23 -24 -25 26 -27 28 29 30 -31 -32 -33 34 35 -36 -37 38 0
1 -2 -3 4 5 -6 7 8 -9 -10 11 12 -13 14 15 16 17 18 -19 20 21 22 23 24 -25 -26 27 28 29 30 -31 32 -33 34 35 36 37 -38 0
1 2 3 4 5 6 -7 8 9 10 -11 12 -13 -14 -15 -16 17 18 -19 20 21 22 -23 24 25 26 -27 28 29 30 -31 32 33 34 -35 36 37 38 0
1 2 3 4 5 6 7 8 -9 -10 11 12 -13 14 15 -16 17 18 -19 20 21 -22 23 24 -25 -26 27 28 29 30 -31 -32 33 -34 35 36 37 38 0
1 2 3 4 5 6 7 8 9 10 11 12 -13 -14 -15 16 -17 -18 19 20 -21 22 -23 24 -25 26 27 28 -29 30 -31 -32 33 -34 35 36 37 38 0
1 2 3 4 5 6 -7 8 9 10 -11 12 13 14 15 -16 17 18 19 -20 -21 22 -23 24 25 -26 27 28 29 -30 31 -32 -33 34 -35 36 37 -38 0
1 2 3 4 5 6 7 -8 9 -10 11 12 13 -14 15 -16 17 18 -19 20 21 -22 -23 24 -25 -26 27 28 29 30 -31 32 33 -34 35 36 37 38 0
1 2 3 4 5 6 7 8 -9 -10 11 12 -13 14 15 -16 17 18 -19 20 21 -22 23 24 -25 -26 27 -28 29 30 -31 32 33 -34 35 36 37 38 0
1 2 3 4 5 6 7 -8 9 -10 11 12 13 -14 15 -16 17 18 -19 20 21 -22 23 24 -25 -26 27 28 29 30 -31 -32 33 -34 35 36 37 38 0
1 2 3 4 5 6 7 -8 9 -10 -11 12 13 -14 15 -16 17 18 -19 20 21 22 23 24 -25 -26 27 28 29 30 -31 32 -33 34 35 -36 -37 38 0
1 2 3 4 5 6 7 -8 9 -10 -11 12 13 -14 15 -16 -17 18 -19 20 21 22 23 24 -25 -26 -27 28 29 30 -31 32 33 34 35 36 37 38 0
1 2 3 4 5 6 7 -8 9 -10 -11 12 13 -14 15 -16 17 18 -19 20 21 22 23 24 -25 -26 27 28 29 30 -31 32 33 -34 35 36 -37 38 0
1 2 3 4 5 6 7 8 9 10 -11 12 -13 -14 -15 -16 17 -18 19 20 21 22 23 -24 -25 26 27 28 29 -30 31 -32 -33 34 -35 36 37 -38 0
1 2 3 4 5 6 7 8 9 10 -11 12 -13 -14 -15 -16 17 -18 19 20 21 22 -23 -24 -25 -26 -27 28 29 30 -31 32 33 34 35 36 37 38 0
1 2 3 4 5 6 -7 8 9 10 -11 12 13 14 -15 16 -17 18 19 20 -21 22 23 24 -25 -26 27 -28 29 30 -31 32 33 -34 35 36 -37 38 0
1 2 3 4 5 6 7 8 9 10 -11 12 -13 -14 -15 -16 -17 -18 19 20 21 22 23 -24 -25 -26 -27 28 29 30 -31 32 33 34 35 36 37 38 0
1 2 3 4 5 6 7 8 9 10 -11 12 -13 -14 -15 -16 17 -18 19 20 21 22 23 -24 -25 -26 -27 -28 29 30 -31 32 33 34 35 36 37 38 0
1 2 3 4 5 6 7 8 9 10 11 12 -13 -14 -15 16 17 -18 19 20 21 -22 23 -24 -25 -26 -27 28 29 30 31 32 33 -34 -35 36 37 -38 0
1 2 -3 -4 5 -6 7 8 9 10 11 12 13 14 -15 16 17 -18 -19 -20 -21 22 23 24 25 26 27 28 -29 -30 31 32 33 -34 35 -36 37 38 0
1 2 -3 -4 -5 6 7 8 9 -10 -11 12 13 14 -15 16 17 18 19 20 21 -22 23 24 -25 26 -27 28 29 -30 31 32 33 34 35 36 37 -38 0
1 2 3 4 5 6 -7 8 9 10 -11 12 -13 -14 -15 -16 17 18 -19 20 21 22 -23 24 25 26 -27 28 29 30 31 -32 33 34 35 36 37 -38 0
1 2 -3 -4 5 -6 7 8 -9 -10 11 12 13 -14 15 16 17 18 19 -20 21 -22 23 24 25 -26 -27 28 29 30 31 32 33 34 35 36 37 -38 0
1 -2 -3 4 5 -6 7 8 -9 -10 11 12 -13 14 15 16 17 18 -19 20 21 22 23 24 25 26 27 28 29 30 -31 32 33 -34 -35 36 37 -38 0
1 2 3 4 5 6 7 8 9 10 11 12 -13 -14 -15 16 17 -18 19 20 21 -22 23 24 -25 26 -27 28 -29 30 -31 -32 33 34 35 -36 -37 38 0
1 -2 -3 4 5 -6 7 8 -9 -10 11 12 -13 14 15 -16 -17 18 -19 20 21 -22 23 24 25 26 27 28 29 30 31 32 33 34 35 36 37 -38 0
1 2 3 4 5 6 -7 8 9 10 -11 12 13 14 -15 16 -17 18 19 20 -21 22 23 -24 -25 26 -27 -28 29 30 -31 32 -33 34 35 36 37 -38 0
1 2 -3 -4 5 -6 7 8 9 10 11 12 13 14 15 16 17 18 19 20 21 -22 23 24 -25 -26 -27 -28 29 30 31 32 33 -34 -35 36 37 -38 0
1 2 3 4 5 6 7 -8 9 -10 11 12 13 -14 15 -16 17 18 -19 20 21 -22 23 24 25 26 -27 -28 29 30 31 32 33 -34 -35 36 37 -38 0
1 2 -3 -4 -5 6 7 8 -9 10 -11 -12 -13 14 15 -16 17 -18 19 20 21 -22 23 24 25 26 27 -28 29 30 31 32 33 34 35 36 37 38 0
1 2 -3 -4 -5 6 7 8 9 -10 -11 12 13 14 -15 16 17 18 19 20 21 -22 23 -24 -25 -26 27 28 29 30 31 32 33 34 35 36 -37 38 0
1 2 -3 -4 5 -6 7 8 9 10 11 12 13 14 15 16 17 18 19 20 21 22 -23 -24 -25 26 -27 28 -29 30 -31 -32 33 34 35 -36 -37 38 0
1 2 3 4 5 6 -7 8 9 10 11 -12 13 14 15 16 17 -18 -19 -20 21 22 23 24 25 -26 27 -28 29 -30 31 -32 -33 34 35 -36 -37 38 0
1 -2 -3 4 5 -6 7 8 -9 -10 11 12 13 -14 15 16 17 18 19 -20 21 -22 23 24 25 -26 -27 28 29 30 31 32 33 34 35 36 37 -38 0
1 2 -3 -4 5 -6 7 8 -9 -10 11 12 -13 14 15 -16 -17 18 -19 20 21 -22 23 24 25 26 27 28 29 30 31 32 33 34 35 36 37 -38 0
1 2 3 4 5 6 7 -8 9 -10 -11 12 13 14 -15 16 17 -18 -19 20 -21 22 23 -24 25 -26 -27 28 29 30 -31 32 -33 34 35 36 37 38 0
1 -2 -3 4 5 -6 7 8 9 10 11 -12 -13 -14 -15 -16 17 18 -19 20 21 -22 23 24 25 26 27 28 29 30 31 32 33 34 35 36 37 -38 0
1 -2 -3 4 5 -6 7 8 -9 -10 11 12 -13 14 15 16 17 18 -19 20 21 22 23 24 -25 -26 27 28 29 30 -31 32 -33 34 35 36 37 38 0
1 2 -3 -4 -5 6 7 -8 9 10 -11 12 13 -14 15 -16 17 18 -19 20 -21 22 23 24 -25 26 27 28 29 30 31 32 33 34 35 36 37 -38 0
1 2 -3 -4 -5 6 7 8 -9 10 -11 12 -13 14 15 -16 17 18 -19 20 -21 22 23 24 -25 26 27 28 29 30 31 32 33 34 35 36 37 -38 0
1 2 3 4 5 6 -7 8 9 10 -11 12 13 14 15 -16 -17 18 19 -20 -21 22 23 24 25 -26 27 -28 29 -30 31 -32 33 34 35 36 37 -38 0
1 2 3 4 5 6 7 8 9 10 -11 12 -13 -14 -15 -16 17 18 -19 20 21 22 23 24 25 26 -27 -28 29 -30 31 32 33 -34 35 -36 37 38 0
1 -2 -3 4 5 -6 7 8 9 10 11 -12 13 14 15 16 17 18 19 -20 21 22 23 -24 25 -26 27 28 -29 30 -31 32 33 -34 -35 36 37 -38 0
1 2 -3 -4 -5 6 7 -8 9 -10 11 -12 13 14 -15 16 -17 -18 -19 -20 21 22 23 24 25 26 27 28 29 30 31 32 33 34 35 36 37 38 0
1 -2 -3 4 5 -6 7 8 9 10 11 -12 13 14 15 16 17 -18 -19 -20 21 22 23 24 25 -26 27 -28 29 -30 31 -32 33 34 35 36 37 38 0
1 2 -3 -4 5 -6 7 8 9 10 11 12 13 14 15 16 17 18 19 -20 -21 22 -23 -24 25 -26 27 -28 29 -30 31 32 -33 34 35 36 37 -38 0
1 2 -3 -4 5 -6 7 8 -9 -10 11 12 -13 14 15 16 17 18 -19 20 21 22 23 24 -25 -26 27 28 29 30 -31 32 -33 34 35 36 37 38 0
1 2 3 4 5 6 7 8 9 10 11 12 13 14 -15 -16 17 18 19 -20 21 -22 -23 24 -25 26 27 28 29 -30 -31 -32 33 34 35 -36 -37 38 0
1 2 -3 -4 5 -6 7 8 9 10 11 -12 13 14 15 16 17 -18 -19 -20 21 22 23 24 25 -26 27 -28 29 -30 31 -32 33 34 35 36 37 38 0
1 2 3 4 5 6 7 8 9 10 11 12 -13 -14 -15 16 17 -18 19 20 -21 22 23 -24 25 -26 27 -28 -29 30 -31 32 33 -34 35 36 -37 38 0
1 2 3 4 5 6 7 8 -9 -10 11 12 -13 14 15 -16 17 -18 19 20 -21 22 23 -24 -25 26 -27 -28 29 30 -31 32 -33 34 35 36 37 38 0
1 2 -3 -4 5 -6 7 8 -9 -10 11 12 -13 14 15 16 17 18 -19 20 21 22 23 24 25 26 27 28 29 30 -31 32 33 -34 -35 36 37 -38 0
1 2 3 4 5 6 7 8 9 10 -11 12 -13 -14 -15 -16 17 -18 19 20 21 22 -23 24 -25 26 -27 28 -29 30 -31 32 -33 34 35 36 37 38 0
1 2 3 4 5 6 7 8 9 10 11 -12 13 14 15 -16 17 18 19 -20 -21 -22 23 -24 25 26 27 28 -29 -30 -31 -32 33 34 35 -36 -37 38 0
1 2 -3 -4 -5 6 7 8 9 -10 11 -12 13 14 -15 16 -17 -18 -19 -20 21 22 23 24 25 26 27 28 29 30 31 32 33 34 35 36 -37 38 0
1 2 -3 -4 -5 6 7 -8 9 -10 -11 12 13 14 -15 16 17 -18 -19 20 -21 22 23 24 -25 26 27 28 29 30 31 32 33 34 35 36 37 38 0
1 2 3 4 5 6 -7 8 9 10 11 -12 13 14 15 16 17 18 19 20 -21 -22 -23 24 -25 26 27 28 29 -30 -31 -32 33 34 35 -36 -37 38 0
1 2 3 4 5 6 7 8 -9 -10 11 12 -13 14 15 -16 17 18 -19 20 21 -22 -23 24 -25 -26 27 28 29 30 -31 32 -33 34 35 36 37 38 0
1 2 3 4 5 6 -7 8 9 10 -11 12 -13 -14 -15 -16 17 -18 19 20 21 22 23 -24 -25 26 27 28 29 -30 31 32 33 -34 35 -36 37 38 0
1 2 3 4 5 6 7 8 -9 -10 11 12 -13 14 15 -16 17 18 -19 20 -21 22 23 -24 25 -26 -27 28 29 30 31 32 -33 -34 35 -36 37 38 0
1 2 3 4 5 6 -7 8 9 10 -11 12 13 14 15 16 -17 18 19 -20 21 22 23 24 -25 -26 -27 -28 29 30 31 32 33 -34 -35 36 37 -38 0
1 2 3 4 5 6 7 8 9 10 11 12 13 14 -15 16 -17 -18 -19 -20 -21 22 -23 24 25 26 27 28 29 -30 -31 -32 33 34 35 36 -37 38 0
1 2 3 4 5 6 -7 8 9 10 -11 12 13 14 15 -16 -17 18 19 -20 -21 22 23 -24 25 26 -27 -28 -29 30 -31 32 -33 34 35 36 37 38 0
1 2 3 4 5 6 -7 8 9 10 -11 12 13 14 15 -16 -17 18 19 20 21 22 23 24 -25 -26 -27 -28 29 30 31 32 33 -34 -35 36 37 -38 0
1 2 -3 -4 5 -6 7 8 9 10 11 12 13 14 15 16 17 18 19 20 21 22 -23 -24 -25 26 -27 28 -29 30 -31 32 33 -34 -35 36 37 -38 0
1 2 -3 -4 5 -6 7 8 9 10 11 12 13 14 15 16 17 18 19 -20 -21 22 23 -24 25 -26 27 28 29 -30 31 -32 -33 34 -35 36 37 -38 0
1 2 -3 -4 5 -6 7 8 9 10 11 12 13 14 15 -16 17 18 19 20 21 -22 -23 24 25 26 27 28 -29 -30 -31 -32 33 34 35 36 -37 38 0
1 2 3 4 5 6 7 8 9 10 11 -12 13 14 15 -16 17 18 19 -20 -21 -22 23 -24 25 26 27 -28 -29 -30 31 32 33 -34 -35 36 37 -38 0
1 2 -3 -4 -5 6 7 -8 9 -10 11 -12 13 14 -15 16 -17 18 -19 -20 21 22 23 24 25 26 27 28 29 30 31 32 33 34 35 36 37 -38 0
1 2 3 4 5 6 7 -8 9 -10 -11 12 13 14 -15 16 17 -18 -19 20 -21 22 23 24 -25 26 27 28 29 30 31 -32 33 -34 35 36 -37 38 0
1 2 3 4 5 6 7 8 9 10 11 12 13 14 15 -16 17 18 19 -20 -21 -22 -23 -24 25 26 27 28 -29 -30 -31 -32 33 34 35 -36 -37 38 0
1 2 -3 -4 -5 6 7 8 -9 10 -11 -12 13 -14 15 -16 17 18 19 -20 -21 22 23 24 25 26 27 28 29 30 31 32 33 34 35 36 37 -38 0
1 2 3 4 5 6 7 8 -9 -10 11 12 -13 14 15 -16 17 18 -19 20 -21 22 23 -24 25 -26 -27 28 29 30 -31 32 -33 34 35 36 37 -38 0
1 2 -3 -4 5 -6 7 8 9 10 11 -12 13 14 15 16 17 18 19 20 21 22 23 -24 -25 26 -27 28 -29 30 -31 -32 33 34 35 -36 -37 38 0
1 2 -3 -4 -5 6 7 -8 9 10 -11 12 13 14 -15 -16 17 18 -19 -20 21 22 23 24 -25 26 27 28 29 30 31 32 33 34 35 36 37 -38 0
1 -2 -3 4 5 -6 7 8 9 10 11 -12 13 14 15 16 17 18 19 20 -21 22 23 24 -25 26 -27 28 29 30 -31 32 33 -34 -35 36 37 -38 0
1 2 -3 -4 5 -6 7 8 9 10 11 12 13 14 15 16 17 -18 -19 -20 21 22 23 24 25 -26 27 28 -29 30 -31 32 33 -34 -35 36 37 -38 0
1 2 3 4 5 6 -7 8 9 10 -11 12 13 14 15 16 -17 -18 -19 -20 21 22 23 24 25 -26 27 28 -29 30 -31 32 33 -34 -35 36 37 -38 0
1 2 3 4 5 6 -7 8 9 10 -11 12 13 14 15 -16 -17 18 19 -20 -21 22 23 -24 25 -26 27 -28 29 -30 31 -32 33 34 35 36 37 38 0
1 2 -3 -4 5 -6 7 8 9 10 11 -12 13 14 15 16 17 18 19 20 -21 22 23 24 -25 26 -27 28 29 30 -31 32 33 -34 -35 36 37 -38 0
1 2 -3 -4 5 -6 7 8 9 10 11 12 13 14 15 16 17 18 19 -20 21 22 23 -24 25 -26 27 -28 29 -30 31 -32 -33 34 35 -36 -37 38 0
1 2 -3 -4 5 -6 7 8 -9 -10 11 12 -13 14 15 16 17 18 -19 20 21 22 -23 24 25 26 -27 28 29 30 31 -32 33 34 35 36 37 -38 0
1 -2 -3 4 5 -6 7 8 -9 -10 11 12 -13 14 15 16 17 18 -19 20 21 22 -23 24 25 26 -27 28 29 30 31 -32 33 34 35 36 37 -38 0
1 2 3 4 5 6 7 -8 9 -10 11 12 13 -14 15 -16 17 18 -19 20 21 -22 -23 24 -25 -26 27 28 29 30 -31 32 -33 34 35 36 37 38 0
1 2 3 4 5 6 7 8 -9 -10 11 12 -13 14 15 -16 17 18 -19 20 -21 -22 23 -24 25 -26 27 28 29 -30 31 32 33 34 35 36 -37 38 0
1 2 3 4 5 6 7 8 -9 -10 11 12 -13 14 15 -16 17 -18 19 20 -21 -22 23 24 25 26 27 -28 29 -30 -31 32 33 -34 35 36 37 38 0
1 2 -3 -4 5 -6 7 8 9 10 11 -12 -13 -14 -15 -16 17 18 -19 20 21 -22 23 24 25 26 27 28 29 30 31 32 33 34 35 36 37 -38 0
1 2 -3 -4 5 -6 7 8 9 10 11 12 -13 -14 -15 -16 -17 18 -19 20 21 -22 23 24 25 26 27 28 29 30 31 32 33 34 35 36 37 -38 0
1 2 -3 -4 5 -6 7 8 9 10 11 -12 13 14 15 16 17 18 19 -20 21 22 23 -24 25 -26 27 28 -29 30 -31 32 33 -34 -35 36 37 -38 0
1 2 3 4 5 6 7 8 9 10 11 -12 13 14 15 -16 17 -18 -19 -20 21 22 -23 24 25 -26 -27 28 -29 30 31 -32 33 -34 35 -36 37 38 0
1 2 3 4 5 6 7 8 9 10 -11 12 -13 -14 -15 -16 -17 18 -19 20 21 22 23 24 25 26 -27 -28 29 30 -31 32 33 34 35 36 37 -38 0
1 2 -3 -4 -5 6 7 -8 9 10 -11 12 13 -14 -15 -16 17 18 -19 20 21 22 23 24 -25 26 27 28 -29 30 31 32 33 34 35 36 37 38 0
1 2 -3 -4 -5 6 7 -8 9 10 -11 12 13 -14 -15 -16 17 18 -19 20 21 22 23 24 -25 26 27 28 29 30 31 32 33 34 35 36 37 -38 0
1 2 3 4 5 6 7 -8 9 -10 -11 12 13 14 -15 -16 17 -18 -19 20 21 22 23 24 -25 -26 -27 28 29 30 -31 32 33 34 35 36 37 38 0
1 -2 -3 4 5 -6 7 8 9 10 11 -12 13 14 15 16 17 18 19 20 21 22 23 -24 -25 26 -27 28 -29 30 -31 -32 33 34 35 -36 -37 38 0
1 2 3 4 5 6 7 8 -9 -10 11 12 -13 14 15 -16 17 -18 19 20 -21 -22 23 24 25 26 27 28 29 -30 -31 -32 33 34 35 36 -37 38 0
1 2 3 4 5 6 7 8 -9 -10 11 12 -13 14 15 -16 17 18 -19 20 -21 22 23 -24 25 26 -27 -28 -29 30 -31 32 -33 34 35 36 37 38 0
1 2 3 4 5 6 7 8 9 10 -11 12 -13 -14 -15 -16 17 -18 19 20 21 22 23 -24 -25 -26 -27 28 29 30 -31 32 -33 34 35 36 37 38 0
1 2 3 4 5 6 7 8 9 10 -11 12 -13 -14 -15 -16 -17 -18 19 20 21 22 23 24 -25 26 27 -28 -29 30 31 -32 33 34 35 36 37 -38 0
1 2 3 4 5 6 7 8 9 10 -11 12 -13 -14 -15 -16 17 -18 19 20 21 22 23 -24 -25 -26 -27 28 29 30 -31 32 33 34 35 36 37 -38 0
1 2 3 4 5 6 7 8 9 10 11 12 13 14 -15 -16 17 18 19 -20 21 -22 -23 -24 25 26 27 28 -29 -30 -31 -32 33 34 35 -36 -37 38 0
1 2 3 4 5 6 7 8 9 10 -11 12 -13 -14 -15 -16 17 -18 19 20 21 22 23 24 -25 26 -27 -28 -29 30 -31 32 -33 34 35 36 37 38 0
1 2 -3 -4 5 -6 7 8 9 10 11 12 13 14 15 16 17 18 19 -20 -21 22 23 24 -25 26 -27 28 29 30 -31 32 33 -34 -35 36 37 -38 0
1 2 3 4 5 6 -7 8 9 10 -11 12 -13 -14 -15 -16 17 18 -19 20 21 22 23 24 25 26 -27 -28 29 30 -31 32 33 34 35 36 37 -38 0
1 2 3 4 5 6 -7 8 9 10 -11 12 13 14 15 -16 17 18 19 20 21 22 -23 24 -25 -26 -27 28 29 30 -31 32 -33 34 35 -36 -37 38 0
1 2 3 4 5 6 -7 8 9 10 -11 12 -13 -14 -15 -16 17 18 -19 20 21 22 -23 24 25 26 -27 28 29 30 31 -32 33 34 35 36 37 38 0
1 2 -3 -4 -5 6 7 -8 9 10 -11 12 13 14 -15 -16 17 18 -19 -20 21 22 23 24 -25 26 27 28 29 30 31 32 33 34 35 36 37 38 0
1 -2 -3 4 5 -6 7 8 -9 -10 11 12 13 -14 15 16 17 18 19 -20 21 -22 23 24 25 -26 -27 28 29 30 31 32 33 34 35 36 37 38 0
1 -2 -3 4 5 -6 7 8 9 10 11 -12 -13 -14 -15 -16 17 18 -19 20 21 -22 23 24 25 26 27 28 29 30 31 32 33 34 35 36 37 38 0
1 2 -3 -4 -5 6 7 8 9 -10 11 -12 13 14 -15 16 -17 -18 -19 -20 21 22 23 24 25 26 27 28 29 30 31 32 33 34 35 36 37 -38 0
1 2 -3 -4 -5 6 7 -8 9 -10 11 -12 13 14 -15 16 -17 18 -19 -20 21 22 23 24 25 26 27 28 29 30 31 32 33 34 35 36 37 38 0
1 -2 -3 4 5 -6 7 8 9 10 11 -12 13 14 15 16 17 18 19 -20 21 22 23 -24 25 -26 27 -28 29 -30 31 -32 33 34 35 36 37 -38 0
1 2 -3 -4 5 -6 7 8 -9 -10 11 12 -13 14 15 -16 -17 18 -19 20 21 -22 23 24 25 26 27 28 29 30 31 32 33 34 35 36 37 38 0
1 -2 -3 4 5 -6 7 8 9 10 11 -12 13 14 15 16 17 -18 -19 -20 21 22 23 24 25 -26 27 28 -29 30 -31 32 33 -34 35 36 37 38 0
1 2 3 4 5 6 7 8 9 10 -11 12 13 14 15 -16 -17 18 19 20 21 22 23 24 -25 -26 -27 -28 29 30 31 32 -33 -34 -35 36 37 -38 0
1 2 -3 -4 -5 6 7 8 -9 10 -11 12 13 -14 15 -16 17 18 19 -20 -21 22 23 24 25 26 27 28 29 30 31 32 33 34 35 36 -37 38 0
1 2 -3 -4 -5 6 7 8 9 -10 -11 12 13 14 -15 16 17 18 19 20 21 -22 23 24 25 -26 -27 28 29 30 31 32 33 34 35 36 -37 38 0
1 2 -3 -4 5 -6 7 8 9 10 11 12 -13 -14 -15 -16 -17 18 -19 20 21 -22 23 24 25 26 27 28 29 30 31 32 33 34 35 36 37 38 0
1 2 -3 -4 5 -6 7 8 9 10 11 12 13 14 15 16 17 -18 -19 -20 21 22 23 24 25 -26 27 -28 29 -30 31 -32 33 34 35 36 37 -38 0
1 2 3 4 5 6 7 8 -9 -10 11 12 13 -14 15 -16 17 18 19 -20 21 -22 23 24 25 -26 27 -28 29 30 -31 32 33 34 -35 36 37 38 0
1 2 3 4 5 6 7 8 9 10 11 -12 13 14 15 16 -17 18 19 -20 21 22 23 24 -25 -26 -27 -28 29 30 31 32 -33 -34 -35 36 37 -38 0
1 2 -3 -4 5 -6 7 8 -9 -10 11 12 13 -14 15 16 17 18 19 -20 21 -22 23 24 25 -26 -27 28 29 30 31 32 33 34 35 36 37 38 0
1 2 -3 -4 5 -6 7 8 9 10 11 12 13 14 -15 16 17 -18 -19 -20 -21 22 23 24 25 26 27 28 -29 -30 31 32 33 -34 35 36 37 38 0
1 2 -3 -4 -5 6 7 -8 9 10 -11 12 13 -14 -15 -16 17 18 -19 20 21 22 23 24 -25 26 27 28 29 30 31 32 33 34 35 36 37 38 0
1 2 -3 -4 -5 6 7 8 -9 10 -11 12 -13 14 15 -16 17 18 -19 20 -21 22 23 24 -25 26 27 28 29 30 31 32 33 34 35 36 37 38 0
1 -2 -3 4 5 -6 7 8 -9 -10 11 12 -13 14 15 16 17 18 -19 20 21 22 23 24 25 26 27 28 29 30 31 -32 33 -34 35 36 -37 38 0
1 2 3 4 5 6 7 8 9 10 11 -12 13 14 15 -16 17 18 19 20 21 -22 -23 24 -25 -26 27 28 29 30 -31 -32 -33 34 35 -36 -37 38 0
1 -2 -3 4 5 -6 7 8 9 10 11 -12 13 14 15 16 17 18 19 20 -21 -22 -23 24 -25 26 -27 28 29 30 31 32 33 34 35 36 -37 38 0
1 2 -3 -4 5 -6 7 8 9 10 11 12 13 14 15 16 17 -18 -19 -20 21 22 23 24 25 -26 27 28 -29 30 -31 32 33 -34 35 36 -37 38 0
1 2 -3 -4 5 -6 7 8 9 10 11 12 13 14 15 -16 17 18 19 20 21 -22 -23 24 25 26 27 28 29 30 -31 -32 -33 34 35 -36 -37 38 0
1 2 -3 -4 5 -6 7 8 9 10 11 -12 -13 -14 -15 -16 17 18 -19 20 21 -22 23 24 25 26 27 28 29 30 31 32 33 34 35 36 37 38 0
1 2 3 4 5 6 -7 8 9 10 -11 12 13 14 -15 16 -17 18 19 20 -21 22 23 24 -25 -26 27 -28 29 30 -31 32 33 -34 35 36 37 38 0
1 2 -3 -4 -5 6 7 8 9 -10 -11 12 13 14 -15 16 17 18 19 20 21 -22 23 -24 -25 -26 27 28 29 30 31 32 33 34 35 36 37 -38 0
1 2 3 4 5 6 -7 8 9 10 11 -12 13 14 15 16 17 18 19 20 -21 -22 -23 24 -25 26 27 28 29 -30 31 -32 -33 34 -35 36 37 -38 0
1 -2 -3 4 5 -6 7 8 -9 -10 11 12 -13 14 15 -16 -17 18 -19 20 21 -22 23 24 25 26 27 28 29 30 31 32 33 34 35 36 37 38 0
1 2 -3 -4 5 -6 7 8 9 10 11 -12 13 14 15 16 17 18 19 -20 21 22 23 -24 25 -26 27 -28 29 -30 31 -32 33 34 35 36 37 -38 0
1 2 3 4 5 6 -7 8 9 10 -11 12 -13 -14 -15 -16 17 -18 19 20 21 22 23 24 -25 26 27 28 -29 30 31 -32 33 34 -35 36 37 38 0
1 2 3 4 5 6 7 8 -9 -10 11 12 -13 14 15 -16 17 -18 19 20 -21 22 23 24 25 26 -27 -28 29 30 31 32 33 -34 -35 36 37 -38 0
1 2 3 4 5 6 7 -8 9 -10 -11 12 13 -14 15 -16 17 18 -19 20 21 22 -23 24 25 26 27 28 29 30 31 -32 33 -34 35 36 -37 38 0
1 2 3 4 5 6 -7 8 9 10 -11 12 13 14 15 16 -17 -18 -19 -20 21 22 23 24 25 -26 27 28 -29 30 -31 32 33 -34 35 36 -37 38 0
1 2 3 4 5 6 -7 8 9 10 -11 12 13 14 -15 16 -17 18 19 -20 21 -22 23 24 -25 26 -27 28 29 30 31 -32 33 34 35 36 -37 38 0
1 2 3 4 5 6 7 8 -9 -10 11 12 -13 14 15 -16 17 18 -19 20 21 -22 23 24 25 26 27 -28 29 30 31 32 -33 -34 -35 36 37 -38 0
1 2 -3 -4 -5 6 7 -8 9 10 -11 12 13 -14 15 -16 17 18 -19 20 -21 22 23 24 -25 26 27 28 29 30 31 32 33 34 35 36 37 38 0
1 2 -3 -4 5 -6 7 8 -9 -10 11 12 -13 14 15 16 17 18 -19 20 21 22 23 24 25 26 27 -28 29 30 31 -32 33 34 35 36 -37 38 0
1 2 -3 -4 5 -6 7 8 -9 -10 11 12 -13 14 15 16 17 18 -19 20 21 22 23 24 25 26 27 28 29 -30 -31 32 33 -34 35 36 37 38 0
1 2 3 4 5 6 7 8 9 10 -11 12 -13 -14 -15 -16 17 18 -19 20 21 22 -23 24 25 26 -27 28 29 30 31 -32 33 34 35 36 -37 38 0
1 -2 -3 4 5 -6 7 8 -9 -10 11 12 -13 14 15 16 17 18 -19 20 21 22 23 24 25 26 27 -28 29 30 31 -32 33 34 35 36 -37 38 0
1 -2 -3 4 5 -6 7 8 9 10 11 -12 13 14 15 16 17 18 19 20 21 22 23 24 25 -26 -27 28 -29 30 -31 -32 33 34 35 -36 -37 38 0
1 2 -3 -4 5 -6 7 8 9 10 11 12 13 14 15 -16 17 18 19 20 21 -22 -23 24 -25 -26 27 28 29 30 -31 32 33 -34 35 36 37 38 0
1 2 3 4 5 6 -7 8 9 10 11 -12 13 14 15 16 17 18 19 20 -21 -22 -23 24 -25 26 27 28 29 -30 -31 -32 33 34 35 36 -37 38 0
1 2 3 4 5 6 7 8 -9 -10 11 12 -13 14 15 -16 17 18 -19 20 -21 22 23 -24 25 -26 -27 28 29 30 -31 32 -33 34 35 36 37 38 0
1 2 -3 -4 5 -6 7 8 9 10 11 12 13 14 15 16 17 18 19 20 21 -22 23 24 -25 -26 -27 28 29 30 31 32 -33 -34 -35 36 37 -38 0
1 2 -3 -4 5 -6 7 8 -9 -10 11 12 -13 14 15 16 17 18 -19 20 21 22 23 24 25 26 27 -28 29 30 -31 32 33 -34 35 36 37 38 0
1 -2 -3 4 5 -6 7 8 -9 -10 11 12 -13 14 15 16 17 18 -19 20 21 22 -23 24 25 26 -27 28 29 30 31 -32 33 34 35 36 37 38 0
1 2 3 4 5 6 7 8 9 10 11 -12 13 14 15 -16 17 18 19 -20 -21 -22 23 -24 25 26 27 28 -29 -30 -31 -32 33 34 35 36 -37 38 0
1 2 3 4 5 6 7 8 -9 -10 11 12 -13 14 15 -16 17 18 -19 20 21 -22 -23 24 25 26 27 28 29 30 -31 -32 33 -34 35 36 37 38 0
1 -2 -3 4 5 -6 7 8 9 10 11 -12 13 14 15 16 17 18 19 -20 -21 22 23 -24 25 26 -27 28 -29 30 -31 32 -33 34 35 36 37 -38 0
1 2 3 4 5 6 -7 8 9 10 -11 12 13 14 15 -16 17 18 19 20 21 22 -23 24 -25 -26 -27 28 29 30 31 -32 33 -34 35 36 -37 38 0
1 2 -3 -4 5 -6 7 8 -9 -10 11 12 -13 14 15 16 17 18 -19 20 21 22 23 24 25 26 27 28 29 30 31 -32 33 -34 35 36 -37 38 0
1 2 3 4 5 6 7 -8 9 -10 -11 12 13 -14 15 -16 17 18 -19 20 21 22 23 24 -25 -26 27 28 29 30 -31 32 33 -34 35 36 37 38 0
1 -2 -3 4 5 -6 7 8 9 10 11 -12 13 14 15 16 17 -18 -19 -20 21 22 23 24 25 -26 27 28 -29 30 -31 32 -33 34 35 36 37 -38 0
1 2 3 4 5 6 7 8 9 10 -11 12 13 14 15 -16 -17 18 19 -20 -21 22 23 -24 25 26 -27 -28 -29 30 -31 32 -33 34 35 36 37 -38 0
1 2 3 4 5 6 7 8 9 10 11 -12 13 14 15 -16 17 18 19 -20 21 22 -23 24 -25 -26 -27 28 29 30 31 -32 33 -34 35 36 -37 38 0
1 2 -3 -4 5 -6 7 8 9 10 11 -12 13 14 15 16 17 -18 -19 -20 21 22 23 24 25 -26 27 28 -29 30 -31 32 33 -34 35 36 37 38 0
1 2 3 4 5 6 7 8 9 10 -11 12 -13 -14 -15 -16 -17 18 -19 20 21 22 23 24 25 26 -27 -28 29 30 -31 32 33 34 35 36 37 38 0
1 2 3 4 5 6 7 -8 9 -10 -11 12 13 -14 15 -16 17 18 -19 20 21 22 23 24 -25 -26 27 28 29 30 -31 32 -33 34 35 36 37 -38 0
1 2 3 4 5 6 -7 8 9 10 -11 12 13 14 15 -16 -17 18 19 20 21 22 23 24 -25 -26 -27 -28 29 30 31 32 -33 -34 35 -36 37 38 0
1 2 -3 -4 5 -6 7 8 -9 -10 11 12 -13 14 15 16 17 18 -19 20 21 22 -23 24 25 26 27 -28 29 30 31 32 33 34 35 36 -37 38 0
1 2 3 4 5 6 7 8 9 10 11 12 13 14 15 -16 17 18 19 -20 -21 -22 -23 -24 25 26 27 28 -29 -30 -31 -32 33 34 35 36 -37 38 0
1 2 -3 -4 5 -6 7 8 9 10 11 -12 13 14 15 16 17 18 19 20 -21 -22 -23 24 -25 26 -27 28 29 30 31 32 33 34 35 36 -37 38 0
1 2 3 4 5 6 7 8 -9 -10 11 12 -13 14 15 -16 17 18 -19 20 -21 -22 23 24 25 -26 27 28 29 -30 31 32 33 34 35 36 -37 38 0
1 2 -3 -4 5 -6 7 8 9 10 11 12 13 14 15 16 17 18 19 -20 -21 22 23 24 25 -26 27 28 29 -30 31 -32 -33 34 -35 36 37 -38 0
1 2 3 4 5 6 -7 8 9 10 -11 12 13 14 15 -16 -17 18 19 20 21 22 23 24 -25 -26 -27 28 29 30 -31 32 -33 34 35 -36 -37 38 0
1 2 -3 -4 5 -6 7 8 -9 -10 11 12 -13 14 15 16 17 18 -19 20 21 22 23 24 25 26 27 -28 29 30 -31 32 33 34 -35 36 37 38 0
1 -2 -3 4 5 -6 7 8 -9 -10 11 12 -13 14 15 16 17 18 -19 20 21 22 23 24 25 26 27 -28 29 30 -31 32 33 34 -35 36 37 38 0
1 2 3 4 5 6 7 8 9 10 -11 12 -13 -14 -15 -16 17 18 -19 20 21 22 -23 24 25 26 -27 28 29 30 -31 32 33 34 -35 36 37 38 0
1 2 -3 -4 5 -6 7 8 9 10 11 12 13 14 15 -16 17 18 19 20 21 -22 -23 24 -25 -26 27 28 29 30 -31 32 -33 34 35 36 37 -38 0
1 2 3 4 5 6 7 8 9 10 -11 12 -13 -14 -15 -16 -17 -18 19 20 21 22 23 24 -25 26 27 -28 -29 30 31 -32 33 34 35 36 37 38 0
1 -2 -3 4 5 -6 7 8 -9 -10 11 12 -13 14 15 16 17 18 -19 20 21 22 -23 24 25 26 27 -28 29 30 31 32 33 34 35 36 -37 38 0
1 2 -3 -4 -5 6 7 8 -9 10 -11 -12 13 -14 15 -16 17 18 19 -20 -21 22 23 24 25 26 27 28 29 30 31 32 33 34 35 36 37 38 0
1 2 3 4 5 6 7 8 9 10 11 12 13 14 -15 -16 17 18 19 -20 21 -22 -23 24 -25 26 27 28 29 -30 31 -32 -33 34 -35 36 37 -38 0
1 2 -3 -4 5 -6 7 8 9 10 11 -12 13 14 15 16 17 -18 -19 -20 21 22 23 24 25 -26 27 28 -29 30 -31 32 -33 34 35 36 37 -38 0
1 2 -3 -4 5 -6 7 8 9 10 11 12 13 14 15 16 17 18 19 20 21 -22 23 24 -25 -26 -27 -28 29 30 31 32 -33 -34 35 -36 37 38 0
1 -2 -3 4 5 -6 7 8 -9 -10 11 12 -13 14 15 16 17 18 -19 20 21 22 23 24 25 26 27 28 29 -30 -31 32 33 -34 35 36 37 38 0
1 2 -3 -4 5 -6 7 8 9 10 11 -12 13 14 15 16 17 18 19 -20 21 22 23 -24 25 -26 27 28 -29 30 -31 32 33 -34 35 36 -37 38 0
1 2 -3 -4 5 -6 7 8 9 10 11 12 13 14 -15 16 17 -18 -19 -20 -21 22 23 24 25 26 27 28 -29 -30 31 32 -33 34 35 36 37 -38 0
1 2 3 4 5 6 7 8 9 10 11 12 13 14 -15 -16 17 18 19 -20 21 -22 -23 24 -25 26 27 28 29 -30 -31 -32 33 34 35 36 -37 38 0
1 2 3 4 5 6 -7 8 9 10 -11 12 -13 -14 -15 -16 17 -18 19 20 21 22 23 -24 -25 26 27 28 29 -30 31 32 33 34 35 36 -37 38 0
1 2 3 4 5 6 7 8 9 10 -11 12 -13 -14 -15 -16 17 18 -19 20 21 22 23 24 25 26 -27 -28 29 -30 31 32 33 -34 35 36 37 38 0
1 2 3 4 5 6 7 8 -9 -10 11 12 -13 14 15 -16 17 18 -19 20 -21 -22 23 -24 25 -26 27 28 29 -30 31 32 33 34 35 36 37 -38 0
1 2 3 4 5 6 7 8 9 10 11 12 -13 -14 -15 16 17 -18 19 20 21 -22 23 -24 -25 -26 27 28 29 30 -31 -32 33 -34 35 36 37 38 0
1 -2 -3 4 5 -6 7 8 9 10 11 -12 13 14 15 16 17 18 19 -20 21 22 23 -24 25 -26 27 28 -29 30 -31 32 33 -34 35 36 -37 38 0
1 2 3 4 5 6 -7 8 9 10 -11 12 13 14 15 16 -17 18 19 -20 -21 -22 23 24 -25 26 27 -28 29 30 -31 32 33 34 -35 36 37 38 0
1 2 3 4 5 6 7 8 9 10 -11 12 13 14 15 -16 -17 18 19 -20 -21 22 23 -24 25 -26 27 -28 29 -30 31 -32 33 34 35 36 37 -38 0
1 2 3 4 5 6 -7 8 9 10 -11 12 13 14 -15 16 -17 18 19 20 -21 22 23 -24 -25 26 -27 -28 29 30 -31 32 -33 34 35 36 37 38 0
1 2 -3 -4 5 -6 7 8 9 10 11 12 13 14 -15 16 17 18 19 -20 21 -22 23 24 -25 26 -27 28 29 30 31 -32 33 34 35 36 -37 38 0
1 2 -3 -4 5 -6 7 8 9 10 11 -12 13 14 15 16 17 18 19 -20 -21 22 23 -24 25 26 -27 28 -29 30 -31 32 -33 34 35 36 37 -38 0
1 2 -3 -4 5 -6 7 8 -9 -10 11 12 -13 14 15 16 17 18 -19 20 21 22 -23 24 25 26 -27 28 29 30 31 -32 33 34 35 36 37 38 0
1 2 3 4 5 6 7 8 9 10 11 12 -13 -14 -15 16 17 -18 19 20 21 -22 23 -24 -25 -26 -27 28 29 30 31 32 -33 -34 35 -36 37 38 0
1 2 -3 -4 5 -6 7 8 9 10 11 12 13 14 15 16 17 18 19 -20 -21 22 -23 -24 25 -26 27 -28 -29 30 31 32 33 34 35 36 -37 38 0
1 2 -3 -4 5 -6 7 8 9 10 11 12 13 14 15 16 17 18 19 20 21 -22 23 24 -25 -26 -27 28 29 30 31 -32 33 -34 35 36 -37 38 0
1 -2 -3 4 5 -6 7 8 -9 -10 11 12 -13 14 15 16 17 18 -19 20 21 22 23 24 25 26 27 -28 29 30 -31 32 33 -34 35 36 37 38 0
1 2 -3 -4 -5 6 7 8 9 -10 -11 12 13 14 -15 16 17 18 19 20 21 -22 23 24 -25 26 -27 28 29 -30 31 32 33 34 35 36 37 38 0
1 2 3 4 5 6 -7 8 9 10 -11 12 -13 -14 -15 -16 17 -18 19 20 21 22 23 -24 -25 26 27 28 29 -30 31 32 -33 34 35 36 37 -38 0
1 2 -3 -4 5 -6 7 8 9 10 11 12 13 14 -15 16 17 18 19 -20 21 -22 23 24 -25 26 -27 28 29 -30 31 32 33 34 35 36 -37 38 0
1 2 3 4 5 6 -7 8 9 10 -11 12 13 14 15 16 -17 18 19 -20 21 22 23 24 -25 -26 -27 -28 29 30 31 32 -33 -34 35 -36 37 38 0
1 2 3 4 5 6 7 8 9 10 11 12 13 14 -15 -16 17 18 19 -20 21 -22 -23 -24 25 26 27 28 -29 -30 -31 -32 33 34 35 36 -37 38 0
1 2 3 4 5 6 7 8 -9 -10 11 12 -13 14 15 -16 17 18 -19 20 -21 22 23 24 -25 26 27 28 29 30 31 -32 33 -34 35 36 -37 38 0
1 2 3 4 5 6 -7 8 9 10 -11 12 -13 -14 -15 -16 17 -18 19 20 21 22 23 -24 -25 26 27 28 29 -30 31 32 33 -34 35 36 37 38 0
1 2 3 4 5 6 7 8 9 10 -11 12 -13 -14 -15 -16 17 -18 19 20 21 22 23 -24 -25 -26 -27 28 29 30 -31 32 33 34 35 36 37 38 0
1 2 3 4 5 6 -7 8 9 10 -11 12 13 14 15 -16 -17 18 19 -20 -21 22 23 24 25 -26 27 -28 29 -30 31 -32 33 34 35 36 37 38 0
1 2 3 4 5 6 -7 8 9 10 -11 12 13 14 15 -16 17 18 19 -20 -21 22 23 -24 25 26 -27 -28 -29 30 -31 32 -33 34 35 36 37 -38 0
1 2 -3 -4 5 -6 7 8 9 10 11 -12 13 14 15 16 17 18 19 20 21 22 23 24 25 -26 -27 28 -29 30 -31 -32 33 34 35 -36 -37 38 0
1 2 3 4 5 6 7 8 9 10 -11 12 -13 -14 -15 -16 17 18 -19 20 21 22 23 24 25 26 -27 -28 29 30 -31 32 33 34 -35 36 37 38 0
1 2 3 4 5 6 -7 8 9 10 -11 12 -13 -14 -15 -16 17 18 -19 20 21 22 23 24 25 26 -27 -28 29 30 -31 32 33 34 35 36 37 38 0
1 2 3 4 5 6 -7 8 9 10 -11 12 13 14 15 -16 -17 18 19 -20 -21 22 23 -24 25 26 -27 28 -29 30 -31 32 -33 34 35 36 37 -38 0
1 2 3 4 5 6 -7 8 9 10 -11 12 13 14 15 -16 17 18 19 -20 -21 22 -23 -24 25 26 -27 28 -29 30 -31 32 -33 34 35 36 37 -38 0
1 2 -3 -4 5 -6 7 8 9 10 11 12 13 14 15 16 17 18 19 -20 -21 22 -23 24 25 -26 27 -28 29 -30 31 32 -33 34 35 36 37 -38 0
1 2 -3 -4 5 -6 7 8 9 10 11 12 13 14 15 16 17 18 19 -20 -21 22 -23 -24 25 -26 27 -28 29 -30 31 32 -33 34 35 36 37 38 0
1 2 3 4 5 6 -7 8 9 10 -11 12 13 14 -15 16 -17 18 19 -20 21 -22 23 24 -25 26 -27 28 29 -30 31 32 33 34 35 36 -37 38 0
1 2 3 4 5 6 7 8 9 10 11 12 13 14 -15 -16 17 18 19 20 21 -22 23 -24 -25 -26 27 28 29 30 -31 -32 -33 34 35 -36 -37 38 0
1 2 -3 -4 5 -6 7 8 9 10 11 12 13 14 -15 16 17 -18 -19 -20 -21 22 23 24 25 26 27 28 -29 -30 31 32 -33 34 35 36 37 38 0
1 -2 -3 4 5 -6 7 8 9 10 11 -12 13 14 15 16 17 -18 -19 -20 21 22 23 24 25 -26 27 28 29 -30 31 32 33 34 35 36 -37 38 0
1 2 3 4 5 6 -7 8 9 10 11 -12 13 14 15 16 17 -18 -19 -20 21 22 23 24 25 -26 27 28 -29 30 -31 32 33 -34 -35 36 37 -38 0
1 2 -3 -4 5 -6 7 8 9 10 11 12 13 14 15 16 17 18 19 20 21 -22 23 24 -25 -26 -27 28 29 30 31 32 33 -34 -35 36 37 -38 0
1 2 -3 -4 5 -6 7 8 9 10 11 12 13 14 -15 16 17 18 19 -20 21 -22 23 24 -25 26 -27 28 29 30 31 -32 33 34 35 36 37 -38 0
1 2 -3 -4 5 -6 7 8 9 10 11 12 13 14 15 16 17 18 19 20 -21 -22 23 24 25 26 -27 28 29 -30 31 32 33 -34 -35 36 37 -38 0
1 2 3 4 5 6 7 8 -9 -10 11 12 -13 14 15 -16 17 18 -19 20 -21 -22 23 -24 25 -26 27 28 29 -30 31 32 33 34 35 36 37 38 0
1 2 3 4 5 6 -7 8 9 10 -11 12 13 14 15 16 -17 18 19 20 21 22 23 24 25 -26 -27 -28 -29 30 31 32 -33 -34 -35 36 37 -38 0
1 2 -3 -4 5 -6 7 8 9 10 11 -12 13 14 15 16 17 -18 -19 -20 21 22 23 24 25 -26 27 28 -29 30 -31 32 -33 34 35 36 37 38 0
1 2 -3 -4 5 -6 7 8 9 10 11 -12 13 14 15 16 17 -18 -19 -20 21 22 23 24 25 -26 27 28 29 -30 31 32 33 34 35 36 -37 38 0
1 -2 -3 4 5 -6 7 8 -9 -10 11 12 -13 14 15 16 17 18 -19 20 21 22 -23 24 25 26 27 -28 29 30 31 32 33 34 35 36 37 -38 0
1 2 -3 -4 -5 6 7 8 9 -10 -11 12 13 14 -15 16 17 18 19 20 21 -22 23 24 25 -26 -27 28 29 30 31 32 33 34 35 36 37 -38 0
1 2 3 4 5 6 7 8 9 10 11 -12 13 14 15 -16 17 18 19 20 21 -22 -23 24 -25 -26 27 28 29 30 -31 32 33 -34 -35 36 37 -38 0
1 -2 -3 4 5 -6 7 8 9 10 11 -12 13 14 15 16 17 -18 -19 -20 21 22 23 24 25 -26 27 28 -29 30 -31 32 -33 34 35 36 37 38 0
1 2 -3 -4 5 -6 7 8 9 10 11 12 13 14 15 16 17 18 19 -20 21 22 23 -24 25 -26 27 28 -29 30 -31 32 33 -34 -35 36 37 -38 0
1 2 3 4 5 6 7 8 9 10 11 12 -13 -14 -15 16 17 18 -19 20 21 -22 23 24 25 26 -27 -28 29 30 31 32 33 -34 -35 36 37 -38 0
1 2 3 4 5 6 7 8 -9 -10 11 12 -13 14 15 -16 17 18 -19 20 -21 -22 23 24 25 -26 27 28 29 -30 31 32 33 34 35 36 37 -38 0
1 2 3 4 5 6 7 -8 9 -10 -11 12 13 14 -15 16 17 -18 -19 20 21 -22 23 24 -25 -26 27 28 29 30 31 32 33 34 35 36 -37 38 0
1 2 3 4 5 6 7 8 9 10 -11 12 -13 -14 -15 -16 17 18 -19 20 21 22 -23 24 25 26 -27 28 29 30 31 -32 33 34 35 36 37 -38 0
1 2 3 4 5 6 7 8 9 10 11 12 -13 -14 -15 16 17 -18 19 20 -21 22 23 24 -25 26 27 28 -29 30 -31 32 33 -34 -35 36 37 -38 0
1 2 3 4 5 6 7 8 9 10 11 12 13 14 -15 -16 17 18 19 -20 21 -22 23 24 -25 26 27 28 29 -30 -31 -32 33 34 35 -36 -37 38 0
1 2 -3 -4 5 -6 7 8 9 10 11 -12 13 14 15 16 17 18 19 20 -21 -22 -23 24 -25 26 -27 28 29 30 31 32 33 34 35 36 37 -38 0
1 2 -3 -4 -5 6 7 8 9 -10 -11 12 13 14 -15 16 17 18 19 20 21 -22 23 -24 -25 -26 27 28 29 30 31 32 33 34 35 36 37 38 0
1 2 3 4 5 6 7 -8 9 -10 -11 12 13 -14 15 -16 17 18 -19 20 21 22 -23 24 25 26 27 28 29 -30 31 32 33 -34 35 -36 37 38 0
1 2 3 4 5 6 -7 8 9 10 -11 12 13 14 15 16 -17 18 19 -20 21 22 23 -24 25 -26 27 28 -29 30 -31 32 33 -34 -35 36 37 -38 0
1 2 -3 -4 5 -6 7 8 9 10 11 12 13 14 15 16 17 -18 -19 -20 21 22 23 24 25 -26 27 -28 29 -30 31 -32 33 34 35 36 37 38 0
1 2 3 4 5 6 -7 8 9 10 -11 12 13 14 -15 16 -17 18 19 20 -21 22 23 24 25 26 -27 -28 29 30 31 32 33 -34 -35 36 37 -38 0
1 2 -3 -4 -5 6 7 8 -9 10 -11 12 13 -14 15 -16 17 18 19 -20 -21 22 23 24 25 26 27 28 29 30 31 32 33 34 35 36 37 -38 0
1 -2 -3 4 5 -6 7 8 -9 -10 11 12 -13 14 15 16 17 18 -19 20 21 22 23 24 25 26 27 -28 29 30 31 -32 33 34 35 36 37 -38 0
1 2 3 4 5 6 -7 8 9 10 -11 12 13 14 15 -16 -17 18 19 20 21 22 23 24 25 26 -27 -28 29 -30 31 32 33 -34 -35 36 37 -38 0
1 2 3 4 5 6 7 -8 9 -10 -11 12 13 14 -15 16 17 -18 -19 20 -21 22 23 24 -25 26 27 28 29 30 31 -32 33 34 -35 36 37 38 0
1 2 -3 -4 5 -6 7 8 -9 -10 11 12 -13 14 15 16 17 18 -19 20 21 22 23 24 25 26 27 -28 29 30 31 -32 33 34 35 36 37 -38 0
1 2 3 4 5 6 -7 8 9 10 -11 12 -13 -14 -15 -16 17 -18 19 20 21 22 23 -24 -25 26 27 28 29 -30 31 32 33 34 35 36 37 -38 0
1 2 3 4 5 6 7 -8 9 -10 -11 12 13 -14 15 -16 17 18 -19 20 21 22 23 24 25 26 27 28 29 30 -31 32 33 -34 -35 36 37 -38 0
1 2 -3 -4 5 -6 7 8 9 10 11 -12 13 14 15 16 17 18 19 -20 -21 22 23 -24 25 26 -27 28 -29 30 -31 32 -33 34 35 36 37 38 0
1 -2 -3 4 5 -6 7 8 9 10 11 -12 13 14 15 16 17 18 19 -20 -21 22 23 -24 25 26 -27 28 -29 30 -31 32 -33 34 35 36 37 38 0
1 2 3 4 5 6 7 8 9 10 -11 12 -13 -14 -15 -16 17 -18 19 20 21 22 23 -24 -25 26 27 28 29 -30 31 32 33 -34 35 -36 37 38 0
1 2 -3 -4 -5 6 7 8 9 -10 11 -12 13 14 -15 16 -17 -18 -19 -20 21 22 23 24 25 26 27 28 29 30 31 32 33 34 35 36 37 38 0
1 -2 -3 4 5 -6 7 8 9 10 11 -12 13 14 15 16 17 18 19 20 21 22 23 -24 -25 26 27 28 29 -30 31 -32 -33 34 -35 36 37 -38 0
1 2 3 4 5 6 7 -8 9 -10 -11 12 13 -14 15 -16 17 18 -19 20 21 22 23 24 -25 -26 27 28 29 30 -31 32 -33 34 35 36 37 38 0
1 2 3 4 5 6 7 8 -9 -10 11 12 -13 14 15 -16 17 -18 19 20 -21 -22 23 24 25 26 27 28 29 -30 -31 32 33 -34 35 36 37 38 0
1 2 3 4 5 6 7 8 9 10 11 -12 13 14 15 16 -17 -18 -19 -20 21 22 23 24 25 -26 27 28 -29 30 -31 32 33 -34 -35 36 37 -38 0
1 2 3 4 5 6 7 8 9 10 11 12 -13 -14 -15 16 17 -18 19 20 -21 22 23 -24 25 -26 27 -28 -29 30 -31 32 33 -34 35 36 37 38 0
1 2 3 4 5 6 -7 8 9 10 11 -12 13 14 15 16 17 18 19 -20 -21 22 23 -24 25 -26 27 28 29 -30 31 -32 -33 34 -35 36 37 -38 0
1 2 -3 -4 5 -6 7 8 9 10 11 12 13 14 15 16 17 18 19 20 -21 22 23 24 -25 26 -27 28 29 30 -31 32 33 -34 -35 36 37 -38 0
1 2 3 4 5 6 7 8 9 10 11 12 13 14 15 -16 17 18 19 -20 -21 -22 23 -24 25 26 27 28 -29 -30 -31 -32 33 34 35 -36 -37 38 0
1 -2 -3 4 5 -6 7 8 -9 -10 11 12 -13 14 15 16 17 18 -19 20 21 22 23 24 25 26 27 28 29 -30 31 32 33 -34 35 -36 37 38 0
1 2 -3 -4 5 -6 7 8 -9 -10 11 12 -13 14 15 16 17 18 -19 20 21 22 23 24 25 26 27 28 29 -30 31 32 33 -34 35 -36 37 38 0
1 2 3 4 5 6 7 8 9 10 11 -12 13 14 15 16 -17 18 19 -20 21 22 23 24 -25 -26 -27 -28 29 30 31 32 33 -34 -35 36 37 -38 0
1 -2 -3 4 5 -6 7 8 9 10 11 -12 13 14 15 16 17 18 19 20 21 22 23 24 -25 -26 27 28 29 30 -31 32 33 -34 -35 36 37 -38 0
1 2 -3 -4 5 -6 7 8 9 10 11 -12 13 14 15 16 17 18 19 20 21 22 23 -24 -25 26 27 28 29 -30 31 -32 -33 34 -35 36 37 -38 0
1 2 3 4 5 6 -7 8 9 10 -11 12 -13 -14 -15 -16 17 -18 19 20 21 22 23 -24 -25 26 27 28 29 -30 31 32 -33 34 35 36 37 38 0
1 2 3 4 5 6 7 8 9 10 11 12 13 14 -15 16 17 18 19 -20 21 -22 23 24 -25 26 -27 -28 -29 30 31 32 -33 -34 -35 36 37 -38 0
1 2 3 4 5 6 7 8 9 10 -11 12 13 14 15 -16 -17 18 19 20 21 22 23 24 -25 -26 -27 -28 29 30 31 32 33 -34 -35 36 37 -38 0
1 2 -3 -4 5 -6 7 8 -9 -10 11 12 -13 14 15 16 17 18 -19 20 21 22 -23 24 25 26 27 -28 29 30 31 32 33 34 35 36 37 -38 0
1 2 -3 -4 5 -6 7 8 9 10 11 -12 13 14 15 16 17 18 19 20 21 22 23 24 -25 -26 27 -28 29 -30 31 -32 33 34 35 36 37 -38 0
1 -2 -3 4 5 -6 7 8 9 10 11 -12 13 14 15 16 17 18 19 -20 21 22 23 -24 25 -26 27 -28 29 -30 31 -32 33 34 35 36 37 38 0
1 2 -3 -4 5 -6 7 8 9 10 11 12 13 14 -15 16 17 18 19 -20 21 -22 23 24 -25 26 -27 28 29 -30 31 32 33 34 35 36 37 -38 0
1 2 -3 -4 5 -6 7 8 9 10 11 12 13 14 15 -16 17 18 19 20 21 -22 -23 24 -25 -26 27 28 29 30 -31 32 -33 34 35 36 37 38 0
1 2 3 4 5 6 -7 8 9 10 -11 12 13 14 15 -16 -17 18 19 20 21 22 23 24 -25 -26 -27 -28 29 30 -31 32 33 34 35 36 37 -38 0
1 2 3 4 5 6 7 8 9 10 11 12 13 14 -15 -16 17 18 19 -20 21 -22 23 -24 25 26 27 28 -29 -30 -31 -32 33 34 35 -36 -37 38 0
1 2 3 4 5 6 7 8 9 10 11 12 13 14 -15 -16 17 18 19 -20 21 -22 -23 24 -25 26 27 28 -29 30 -31 -32 33 -34 35 36 37 38 0
1 -2 -3 4 5 -6 7 8 9 10 11 -12 13 14 15 16 17 18 19 20 -21 -22 -23 24 -25 26 -27 28 29 30 31 32 33 34 35 36 37 -38 0
1 -2 -3 4 5 -6 7 8 9 10 11 -12 13 14 15 16 17 18 19 20 21 22 23 24 -25 -26 27 -28 29 -30 31 -32 33 34 35 36 37 -38 0
1 2 -3 -4 5 -6 7 8 9 10 11 12 13 14 15 16 17 18 19 20 21 22 23 -24 -25 26 -27 28 -29 30 -31 -32 33 34 35 -36 -37 38 0
1 2 3 4 5 6 -7 8 9 10 -11 12 13 14 15 -16 17 18 19 -20 -21 22 23 -24 25 26 -27 -28 -29 30 -31 32 -33 34 35 36 37 38 0
1 2 3 4 5 6 -7 8 9 10 -11 12 13 14 15 -16 17 18 19 -20 -21 22 -23 -24 25 -26 27 28 29 -30 31 32 33 34 35 36 -37 38 0
1 2 3 4 5 6 7 8 9 10 11 -12 13 14 15 -16 17 18 19 20 -21 22 -23 24 -25 26 -27 28 29 30 -31 32 33 -34 -35 36 37 -38 0
1 2 3 4 5 6 -7 8 9 10 11 -12 13 14 15 16 17 18 19 -20 21 22 23 -24 25 -26 27 -28 29 -30 31 -32 -33 34 35 -36 -37 38 0
1 2 -3 -4 5 -6 7 8 9 10 11 -12 13 14 15 16 17 18 19 -20 21 22 23 -24 25 -26 27 -28 29 -30 31 -32 33 34 35 36 37 38 0
1 2 3 4 5 6 -7 8 9 10 11 -12 13 14 15 16 17 18 19 -20 -21 22 23 24 -25 26 -27 28 29 30 -31 32 33 -34 -35 36 37 -38 0
1 2 3 4 5 6 7 8 9 10 -11 12 -13 -14 -15 -16 17 18 -19 20 21 22 23 24 25 26 -27 -28 29 30 -31 32 33 34 35 36 37 -38 0
1 2 -3 -4 5 -6 7 8 9 10 11 12 13 14 15 16 17 18 19 -20 -21 22 -23 -24 25 -26 27 -28 -29 30 31 32 33 34 35 36 37 -38 0
1 2 3 4 5 6 7 8 9 10 11 12 13 14 15 -16 17 18 19 -20 -21 -22 23 -24 25 26 27 -28 -29 -30 31 32 33 -34 -35 36 37 -38 0
1 2 3 4 5 6 -7 8 9 10 11 -12 13 14 15 16 17 18 19 20 21 22 -23 -24 -25 26 -27 28 -29 30 -31 -32 33 34 35 -36 -37 38 0
1 2 3 4 5 6 7 8 9 10 11 12 13 14 -15 -16 17 18 19 20 21 -22 -23 24 -25 26 27 28 29 -30 -31 -32 33 34 35 -36 -37 38 0
1 2 -3 -4 5 -6 7 8 9 10 11 12 13 14 15 16 17 18 19 -20 -21 22 -23 24 25 -26 27 -28 29 -30 31 32 -33 34 35 36 37 38 0
1 2 -3 -4 5 -6 7 8 9 10 11 -12 13 14 15 16 17 18 19 20 21 22 23 24 -25 -26 27 28 29 30 -31 32 33 -34 -35 36 37 -38 0
1 2 3 4 5 6 -7 8 9 10 -11 12 13 14 -15 16 -17 18 19 -20 21 -22 23 24 -25 26 27 -28 -29 30 31 32 33 34 35 36 -37 38 0
1 2 3 4 5 6 -7 8 9 10 -11 12 13 14 -15 16 -17 18 19 -20 21 -22 23 24 -25 26 -27 28 29 -30 31 32 33 34 35 36 37 -38 0
1 2 3 4 5 6 7 8 9 10 -11 12 13 14 15 -16 -17 18 19 -20 -21 22 23 -24 25 -26 27 -28 29 -30 31 -32 33 34 35 36 37 38 0
1 2 3 4 5 6 7 8 9 10 -11 12 13 14 15 -16 -17 18 19 -20 -21 22 23 -24 25 26 -27 -28 -29 30 -31 32 -33 34 35 36 37 38 0
1 2 3 4 5 6 -7 8 9 10 11 -12 13 14 15 16 17 18 19 20 21 22 -23 -24 -25 26 -27 28 -29 30 -31 32 33 -34 -35 36 37 -38 0
1 2 3 4 5 6 7 8 9 10 11 12 13 14 15 -16 17 18 19 -20 -21 -22 -23 -24 25 26 27 28 29 -30 31 -32 -33 34 -35 36 37 -38 0
1 2 3 4 5 6 -7 8 9 10 -11 12 13 14 15 -16 17 18 19 -20 -21 22 -23 -24 25 26 -27 28 -29 30 -31 32 -33 34 35 36 37 38 0
1 2 3 4 5 6 7 8 9 10 -11 12 13 14 15 -16 -17 18 19 -20 -21 22 23 24 25 -26 27 -28 29 -30 31 -32 33 34 35 36 37 -38 0
1 2 3 4 5 6 7 8 9 10 11 12 13 14 -15 -16 17 18 19 -20 21 -22 23 24 -25 26 27 -28 -29 30 31 32 -33 -34 -35 36 37 -38 0
1 2 3 4 5 6 7 8 9 10 11 -12 13 14 15 -16 17 18 19 -20 21 22 -23 -24 25 -26 -27 28 -29 30 31 -32 33 -34 35 -36 37 38 0
1 2 3 4 5 6 -7 8 9 10 -11 12 13 14 -15 16 -17 18 19 -20 21 -22 23 24 -25 26 -27 28 29 30 31 -32 33 34 35 36 37 -38 0
1 2 3 4 5 6 -7 8 9 10 -11 12 13 14 15 -16 -17 18 19 -20 -21 22 23 -24 25 26 -27 28 -29 30 -31 32 -33 34 35 36 37 38 0
1 2 -3 -4 5 -6 7 8 9 10 11 12 13 14 15 16 17 18 19 20 -21 -22 23 24 -25 26 -27 28 29 -30 31 32 33 34 35 36 -37 38 0
1 2 3 4 5 6 -7 8 9 10 11 -12 13 14 15 16 17 -18 -19 -20 21 22 23 24 25 -26 27 -28 29 -30 31 -32 33 34 35 36 37 -38 0
1 2 3 4 5 6 7 -8 9 -10 -11 12 13 14 -15 16 17 -18 -19 20 21 -22 23 24 -25 -26 27 28 29 30 31 32 33 34 35 36 37 -38 0
1 2 3 4 5 6 -7 8 9 10 -11 12 13 14 -15 16 -17 18 19 20 21 -22 23 24 25 26 27 -28 29 30 31 32 -33 -34 -35 36 37 -38 0
1 2 -3 -4 5 -6 7 8 9 10 11 -12 13 14 15 16 17 18 19 20 21 22 23 24 -25 -26 27 28 29 30 -31 32 -33 34 35 -36 -37 38 0
1 2 -3 -4 5 -6 7 8 9 10 11 12 13 14 15 16 17 18 19 -20 21 22 23 -24 25 -26 27 -28 29 -30 31 -32 33 34 35 36 37 -38 0
1 2 -3 -4 5 -6 7 8 9 10 11 -12 13 14 15 16 17 18 19 20 21 22 -23 -24 -25 26 27 -28 -29 30 31 32 33 34 35 36 -37 38 0
1 -2 -3 4 5 -6 7 8 -9 -10 11 12 -13 14 15 16 17 18 -19 20 21 22 23 24 25 26 27 28 29 30 31 32 -33 -34 35 -36 37 38 0
1 -2 -3 4 5 -6 7 8 9 10 11 -12 13 14 15 16 17 18 19 20 -21 22 23 24 -25 26 -27 28 29 -30 31 32 33 34 35 36 -37 38 0
1 2 -3 -4 5 -6 7 8 9 10 11 -12 13 14 15 16 17 18 19 20 -21 22 23 24 -25 26 -27 28 29 -30 31 32 33 34 35 36 -37 38 0
1 2 3 4 5 6 7 -8 9 -10 11 12 13 -14 15 -16 17 18 -19 20 21 -22 23 24 -25 -26 27 28 29 30 31 32 33 34 35 36 -37 38 0
1 2 3 4 5 6 7 8 -9 -10 11 12 -13 14 15 -16 17 18 -19 20 21 -22 23 24 -25 -26 27 28 29 30 31 32 33 34 35 36 -37 38 0
1 2 -3 -4 -5 6 7 8 -9 10 -11 12 13 -14 15 -16 17 18 19 -20 -21 22 23 24 25 26 27 28 29 30 31 32 33 34 35 36 37 38 0
1 2 -3 -4 5 -6 7 8 -9 -10 11 12 -13 14 15 16 17 18 -19 20 21 22 -23 24 25 26 27 -28 29 30 31 32 33 34 35 36 37 38 0
1 -2 -3 4 5 -6 7 8 9 10 11 -12 13 14 15 16 17 -18 -19 -20 21 22 23 24 25 -26 27 28 29 -30 31 32 33 34 35 36 37 -38 0
1 2 -3 -4 5 -6 7 8 9 10 11 12 13 14 15 16 17 18 19 20 -21 -22 23 24 -25 26 -27 28 29 30 31 -32 33 34 35 36 -37 38 0
1 -2 -3 4 5 -6 7 8 -9 -10 11 12 -13 14 15 16 17 18 -19 20 21 22 -23 24 25 26 27 -28 29 30 31 32 33 34 35 36 37 38 0
1 -2 -3 4 5 -6 7 8 -9 -10 11 12 -13 14 15 16 17 18 -19 20 21 22 23 24 25 26 27 -28 29 30 31 -32 33 34 35 36 37 38 0
1 2 -3 -4 5 -6 7 8 9 10 11 -12 13 14 15 16 17 18 19 20 -21 -22 -23 24 -25 26 -27 28 29 30 31 32 33 34 35 36 37 38 0
1 2 3 4 5 6 -7 8 9 10 -11 12 13 14 15 -16 17 18 19 -20 -21 22 -23 -24 25 -26 27 28 29 -30 31 32 33 34 35 36 37 -38 0
1 -2 -3 4 5 -6 7 8 9 10 11 -12 13 14 15 16 17 18 19 20 -21 -22 -23 24 -25 26 -27 28 29 30 31 32 33 34 35 36 37 38 0
1 2 3 4 5 6 -7 8 9 10 -11 12 13 14 -15 16 -17 18 19 -20 21 -22 23 24 -25 26 27 -28 -29 30 31 32 33 34 35 36 37 -38 0
1 2 -3 -4 5 -6 7 8 9 10 11 -12 13 14 15 16 17 -18 -19 -20 21 22 23 24 25 -26 27 28 29 -30 31 32 33 34 35 36 37 -38 0
1 -2 -3 4 5 -6 7 8 -9 -10 11 12 -13 14 15 16 17 18 -19 20 21 22 23 24 25 26 27 28 29 -30 31 32 33 -34 35 36 37 38 0
1 2 3 4 5 6 -7 8 9 10 11 -12 13 14 15 16 17 -18 -19 -20 21 22 23 24 25 -26 27 28 -29 30 -31 32 33 -34 35 36 -37 38 0
1 2 3 4 5 6 7 8 9 10 -11 12 -13 -14 -15 -16 17 18 -19 20 21 22 -23 24 25 26 -27 28 29 30 31 -32 33 34 35 36 37 38 0
1 2 -3 -4 5 -6 7 8 9 10 11 -12 13 14 15 16 17 18 19 20 21 22 -23 24 25 26 27 -28 29 30 31 32 -33 -34 -35 36 37 -38 0
1 2 -3 -4 5 -6 7 8 -9 -10 11 12 -13 14 15 16 17 18 -19 20 21 22 23 24 25 26 27 28 29 -30 31 32 33 -34 35 36 37 38 0
1 2 -3 -4 5 -6 7 8 -9 -10 11 12 -13 14 15 16 17 18 -19 20 21 22 23 24 25 26 27 28 29 30 31 32 -33 -34 35 -36 37 38 0
1 2 -3 -4 5 -6 7 8 9 10 11 12 13 14 15 -16 17 18 19 20 21 -22 -23 24 25 26 27 28 29 30 -31 -32 33 -34 35 36 37 38 0
1 2 3 4 5 6 7 8 -9 -10 11 12 -13 14 15 -16 17 18 -19 20 -21 -22 23 24 25 -26 27 28 29 -30 31 32 33 34 35 36 37 38 0
1 2 3 4 5 6 7 8 9 10 -11 12 -13 -14 -15 -16 17 -18 19 20 21 22 23 24 -25 26 27 28 -29 30 31 -32 33 34 -35 36 37 38 0
1 -2 -3 4 5 -6 7 8 9 10 11 -12 13 14 15 16 17 18 19 20 21 22 -23 24 25 26 27 -28 29 30 31 32 -33 -34 -35 36 37 -38 0
1 2 3 4 5 6 7 8 9 10 11 12 -13 -14 -15 16 17 -18 19 20 21 -22 23 -24 -25 26 -27 28 29 -30 31 32 33 34 35 36 -37 38 0
1 2 3 4 5 6 7 8 9 10 -11 12 -13 -14 -15 -16 17 -18 19 20 21 22 23 -24 -25 26 27 28 29 -30 31 32 33 -34 35 36 37 38 0
1 2 -3 -4 5 -6 7 8 9 10 11 12 13 14 15 16 17 -18 -19 -20 21 22 23 24 25 -26 27 28 -29 30 -31 32 33 -34 35 36 37 38 0
1 2 -3 -4 5 -6 7 8 -9 -10 11 12 -13 14 15 16 17 18 -19 20 21 22 23 24 25 26 27 28 29 30 31 -32 33 34 -35 36 37 38 0
1 2 3 4 5 6 7 8 9 10 -11 12 13 14 15 -16 -17 18 19 -20 -21 22 23 -24 25 26 -27 28 -29 30 -31 32 -33 34 35 36 37 -38 0
1 -2 -3 4 5 -6 7 8 9 10 11 -12 13 14 15 16 17 -18 -19 -20 21 22 23 24 25 -26 27 28 -29 30 31 32 33 34 35 36 -37 38 0
1 2 3 4 5 6 7 8 9 10 11 -12 13 14 15 16 -17 18 19 -20 21 22 23 24 -25 -26 -27 -28 29 30 31 32 -33 -34 35 -36 37 38 0
1 2 -3 -4 5 -6 7 8 9 10 11 12 13 14 -15 16 17 18 19 -20 21 -22 23 24 -25 26 -27 28 29 -30 31 32 33 34 35 36 37 38 0
1 2 -3 -4 -5 6 7 8 9 -10 -11 12 13 14 -15 16 17 18 19 20 21 -22 23 24 25 -26 -27 28 29 30 31 32 33 34 35 36 37 38 0
1 -2 -3 4 5 -6 7 8 9 10 11 -12 13 14 15 16 17 18 19 20 21 22 -23 -24 -25 26 27 -28 -29 30 31 32 33 34 35 36 -37 38 0
1 2 -3 -4 5 -6 7 8 -9 -10 11 12 -13 14 15 16 17 18 -19 20 21 22 23 24 25 26 27 -28 29 30 31 -32 33 34 35 36 37 38 0
1 2 3 4 5 6 7 -8 9 -10 -11 12 13 -14 15 -16 17 18 -19 20 21 22 23 24 25 26 27 28 29 30 31 -32 33 -34 35 36 -37 38 0
1 2 3 4 5 6 7 8 9 10 11 12 13 14 15 16 17 18 19 -20 -21 22 -23 -24 25 -26 27 -28 29 -30 31 32 33 -34 -35 36 37 -38 0
1 2 -3 -4 5 -6 7 8 9 10 11 12 13 14 -15 16 17 18 19 -20 21 -22 23 24 25 -26 -27 28 29 30 31 32 33 34 35 36 -37 38 0
1 2 3 4 5 6 7 8 9 10 -11 12 -13 -14 -15 -16 17 -18 19 20 21 22 23 -24 -25 26 27 28 29 -30 31 32 -33 34 35 36 37 -38 0
1 2 -3 -4 5 -6 7 8 9 10 11 12 13 14 15 16 17 18 19 20 21 -22 23 24 -25 -26 -27 28 29 30 31 32 -33 -34 35 -36 37 38 0
1 2 3 4 5 6 7 8 9 10 11 -12 13 14 15 16 -17 -18 -19 -20 21 22 23 24 25 -26 27 28 -29 30 -31 32 33 -34 35 36 -37 38 0
1 -2 -3 4 5 -6 7 8 -9 -10 11 12 -13 14 15 16 17 18 -19 20 21 22 23 24 25 26 27 28 29 30 31 -32 33 34 -35 36 37 38 0
1 2 -3 -4 5 -6 7 8 9 10 11 -12 13 14 15 16 17 18 19 20 21 22 23 24 -25 -26 27 -28 29 -30 31 -32 33 34 35 36 37 38 0
1 2 3 4 5 6 7 8 9 10 11 -12 13 14 15 -16 17 18 19 20 21 -22 -23 24 -25 -26 27 28 29 30 -31 -32 33 -34 35 36 37 38 0
1 -2 -3 4 5 -6 7 8 9 10 11 -12 13 14 15 16 17 18 19 20 21 22 23 -24 -25 26 27 -28 -29 30 31 -32 33 34 35 36 -37 38 0
1 2 3 4 5 6 -7 8 9 10 -11 12 13 14 15 -16 17 18 19 20 21 22 -23 24 -25 -26 -27 28 29 30 -31 32 -33 34 35 36 37 -38 0
1 2 3 4 5 6 -7 8 9 10 -11 12 -13 -14 -15 -16 17 -18 19 20 21 22 23 -24 -25 26 27 28 29 -30 31 32 33 34 35 36 37 38 0
1 2 -3 -4 5 -6 7 8 9 10 11 -12 13 14 15 16 17 18 19 20 21 22 23 24 25 -26 27 28 -29 30 -31 32 33 -34 -35 36 37 -38 0
1 2 3 4 5 6 7 -8 9 -10 -11 12 13 -14 15 -16 17 18 -19 20 21 22 -23 24 25 26 27 28 29 30 31 -32 33 34 -35 36 37 38 0
1 -2 -3 4 5 -6 7 8 9 10 11 -12 13 14 15 16 17 18 19 20 21 22 23 24 -25 -26 27 -28 29 -30 31 -32 33 34 35 36 37 38 0
1 2 3 4 5 6 7 8 9 10 -11 12 -13 -14 -15 -16 17 -18 19 20 21 22 23 -24 -25 26 27 28 29 -30 31 32 33 34 35 36 -37 38 0
1 2 3 4 5 6 7 8 9 10 11 12 13 14 -15 -16 17 18 19 -20 21 -22 23 -24 25 26 27 28 -29 -30 -31 -32 33 34 35 36 -37 38 0
1 2 3 4 5 6 -7 8 9 10 -11 12 13 14 15 -16 17 18 19 -20 -21 22 -23 24 25 -26 27 28 29 -30 31 32 33 34 35 36 -37 38 0
1 -2 -3 4 5 -6 7 8 9 10 11 -12 13 14 15 16 17 18 19 20 21 22 23 24 25 -26 27 28 -29 30 -31 32 33 -34 -35 36 37 -38 0
1 -2 -3 4 5 -6 7 8 9 10 11 -12 13 14 15 16 17 18 19 20 21 22 23 24 -25 26 27 28 29 -30 31 -32 -33 34 -35 36 37 -38 0
1 -2 -3 4 5 -6 7 8 9 10 11 -12 13 14 15 16 17 18 19 20 21 22 23 24 -25 -26 27 28 29 30 -31 32 33 -34 35 36 -37 38 0
1 2 3 4 5 6 7 8 9 10 -11 12 13 14 15 -16 -17 18 19 20 21 22 23 24 -25 -26 -27 -28 29 30 31 32 -33 -34 35 -36 37 38 0
1 2 -3 -4 5 -6 7 8 9 10 11 12 13 14 15 16 17 18 19 -20 -21 22 23 -24 25 26 -27 28 -29 30 -31 32 -33 34 35 36 37 -38 0
1 2 3 4 5 6 7 -8 9 -10 -11 12 13 -14 15 -16 17 18 -19 20 21 22 23 24 25 26 27 28 29 -30 -31 32 33 -34 35 36 37 38 0
1 2 -3 -4 5 -6 7 8 9 10 11 12 13 14 15 16 17 18 19 -20 21 22 23 -24 25 -26 27 28 -29 30 -31 32 33 -34 35 36 -37 38 0
1 2 -3 -4 5 -6 7 8 9 10 11 12 13 14 15 16 17 18 19 20 21 22 23 24 25 -26 -27 28 -29 30 -31 -32 33 34 35 -36 -37 38 0
1 2 3 4 5 6 -7 8 9 10 11 -12 13 14 15 16 17 18 19 -20 -21 22 23 24 25 -26 27 28 29 -30 31 -32 -33 34 -35 36 37 -38 0
1 2 3 4 5 6 7 8 9 10 11 12 13 14 15 -16 17 18 19 -20 -21 -22 23 -24 25 26 27 28 -29 -30 -31 -32 33 34 35 36 -37 38 0
1 2 3 4 5 6 7 8 9 10 11 -12 13 14 15 -16 17 18 19 20 21 -22 -23 24 -25 -26 27 28 29 30 -31 32 33 -34 35 36 -37 38 0
1 2 3 4 5 6 7 8 9 10 11 -12 13 14 15 -16 17 18 19 20 21 -22 -23 24 25 26 27 28 -29 -30 -31 -32 33 34 35 -36 -37 38 0
1 2 -3 -4 5 -6 7 8 9 10 11 -12 13 14 15 16 17 18 19 20 21 22 23 24 -25 -26 27 28 29 30 -31 32 33 -34 35 36 -37 38 0
1 2 -3 -4 5 -6 7 8 9 10 11 -12 13 14 15 16 17 18 19 20 21 22 23 24 -25 26 27 28 29 -30 31 -32 -33 34 -35 36 37 -38 0
1 2 3 4 5 6 7 8 -9 -10 11 12 -13 14 15 -16 17 18 -19 20 -21 22 23 24 -25 26 27 28 29 30 31 -32 33 34 -35 36 37 38 0
1 2 -3 -4 5 -6 7 8 9 10 11 12 13 14 -15 16 17 18 19 -20 21 -22 23 24 -25 -26 27 28 29 30 31 32 33 34 35 36 -37 38 0
1 2 3 4 5 6 -7 8 9 10 -11 12 -13 -14 -15 -16 17 -18 19 20 21 22 23 24 -25 26 27 28 -29 30 31 32 33 34 35 36 -37 38 0
1 2 -3 -4 5 -6 7 8 9 10 11 12 13 14 15 16 17 18 19 -20 -21 22 -23 -24 25 -26 27 -28 -29 30 31 32 33 34 35 36 37 38 0
1 -2 -3 4 5 -6 7 8 9 10 11 -12 13 14 15 16 17 18 19 20 21 22 23 24 -25 -26 27 28 29 30 -31 32 -33 34 35 -36 -37 38 0
1 2 3 4 5 6 7 8 9 10 11 -12 13 14 15 -16 17 18 19 20 21 22 -23 24 -25 -26 -27 28 29 30 31 -32 33 -34 35 36 -37 38 0
1 2 -3 -4 5 -6 7 8 9 10 11 -12 13 14 15 16 17 18 19 -20 21 22 23 -24 25 -26 27 28 -29 30 -31 32 33 -34 35 36 37 38 0
1 2 3 4 5 6 7 8 9 10 11 12 13 14 15 -16 17 18 19 20 21 -22 -23 24 -25 -26 27 28 29 30 -31 -32 -33 34 35 -36 -37 38 0
1 2 -3 -4 5 -6 7 8 9 10 11 12 13 14 -15 16 17 18 19 -20 21 -22 23 -24 25 -26 27 28 -29 30 31 32 33 34 35 36 -37 38 0
1 2 -3 -4 5 -6 7 8 9 10 11 -12 13 14 15 16 17 18 19 -20 -21 22 23 -24 25 -26 27 28 -29 30 31 32 33 34 35 36 -37 38 0
1 2 3 4 5 6 -7 8 9 10 -11 12 13 14 -15 16 -17 18 19 -20 21 -22 23 24 -25 26 -27 28 29 -30 31 32 33 34 35 36 37 38 0
1 2 3 4 5 6 -7 8 9 10 -11 12 13 14 -15 16 -17 18 19 -20 21 -22 23 24 -25 26 -27 28 29 30 31 -32 33 34 35 36 37 38 0
1 2 3 4 5 6 -7 8 9 10 -11 12 13 14 15 16 -17 -18 -19 -20 21 22 23 24 25 -26 27 28 -29 30 -31 32 -33 34 35 36 37 -38 0
1 2 3 4 5 6 7 -8 9 -10 -11 12 13 -14 15 -16 17 18 -19 20 21 22 -23 24 25 26 27 28 29 30 31 32 -33 -34 35 -36 37 38 0
1 2 -3 -4 5 -6 7 8 9 10 11 12 13 14 -15 16 17 18 19 -20 21 -22 23 24 -25 26 -27 28 29 30 31 -32 33 34 35 36 37 38 0
1 -2 -3 4 5 -6 7 8 9 10 11 -12 13 14 15 16 17 18 19 -20 21 22 23 -24 25 -26 27 28 -29 30 -31 32 33 -34 35 36 37 38 0
1 2 3 4 5 6 7 8 9 10 11 -12 13 14 15 -16 17 18 19 20 21 -22 23 24 -25 -26 27 -28 29 30 -31 32 33 -34 35 36 -37 38 0
1 2 3 4 5 6 7 8 9 10 -11 12 13 14 15 -16 -17 18 19 -20 -21 22 23 24 25 -26 27 -28 29 -30 31 -32 33 34 35 36 37 38 0
1 2 3 4 5 6 -7 8 9 10 -11 12 13 14 15 16 -17 -18 -19 -20 21 22 23 24 25 -26 27 28 -29 30 -31 32 33 -34 35 36 37 38 0
1 2 3 4 5 6 7 -8 9 -10 -11 12 13 -14 15 -16 17 18 -19 20 21 22 -23 24 25 26 27 28 29 -30 31 32 33 -34 35 36 37 38 0
1 2 -3 -4 5 -6 7 8 9 10 11 -12 13 14 15 16 17 18 19 20 21 22 23 -24 -25 26 27 -28 -29 30 31 -32 33 34 35 36 -37 38 0
1 2 3 4 5 6 7 8 9 10 11 -12 13 14 15 -16 17 18 19 20 21 -22 23 24 -25 -26 27 28 29 30 -31 -32 -33 34 35 -36 -37 38 0
1 -2 -3 4 5 -6 7 8 9 10 11 -12 13 14 15 16 17 18 19 -20 -21 22 23 -24 25 -26 27 28 -29 30 31 32 33 34 35 36 -37 38 0
1 2 3 4 5 6 7 8 9 10 -11 12 -13 -14 -15 -16 17 18 -19 20 21 22 23 24 25 26 -27 -28 29 30 -31 32 33 34 35 36 37 38 0
1 2 3 4 5 6 -7 8 9 10 -11 12 13 14 15 16 -17 18 19 -20 21 22 23 -24 25 -26 27 28 -29 30 -31 32 33 -34 35 36 -37 38 0
1 2 -3 -4 5 -6 7 8 9 10 11 -12 13 14 15 16 17 -18 -19 -20 21 22 23 24 25 -26 27 28 -29 30 31 32 33 34 35 36 -37 38 0
1 2 3 4 5 6 7 8 9 10 11 -12 13 14 15 -16 17 18 19 20 21 22 -23 24 -25 -26 -27 28 29 30 -31 32 -33 34 35 -36 -37 38 0
1 2 3 4 5 6 -7 8 9 10 -11 12 13 14 15 -16 -17 18 19 20 21 22 23 24 -25 -26 -27 -28 29 30 -31 32 33 34 35 36 37 38 0
1 2 3 4 5 6 -7 8 9 10 -11 12 13 14 -15 16 -17 18 19 20 21 -22 23 24 -25 26 -27 28 29 -30 31 32 33 34 35 36 -37 38 0
1 2 3 4 5 6 7 8 9 10 11 12 13 14 -15 -16 17 18 19 20 21 -22 -23 24 -25 26 27 28 29 -30 -31 -32 33 34 35 36 -37 38 0
1 2 3 4 5 6 7 8 9 10 -11 12 13 14 15 -16 -17 18 19 20 21 22 23 24 -25 -26 -27 28 29 30 -31 32 -33 34 35 -36 -37 38 0
1 2 3 4 5 6 7 8 9 10 11 -12 13 14 15 -16 17 18 19 20 21 -22 -23 24 -25 -26 27 28 29 30 -31 32 -33 34 35 -36 -37 38 0
1 2 -3 -4 5 -6 7 8 9 10 11 12 13 14 15 16 17 -18 -19 -20 21 22 23 24 25 -26 27 28 -29 30 -31 32 -33 34 35 36 37 -38 0
1 2 3 4 5 6 7 8 9 10 11 12 13 14 -15 -16 17 18 19 -20 21 -22 23 24 -25 26 27 28 29 -30 -31 -32 33 34 35 36 -37 38 0
1 2 3 4 5 6 7 8 9 10 11 12 13 14 -15 16 17 18 19 -20 21 -22 23 24 -25 26 -27 28 -29 30 -31 -32 33 34 35 -36 -37 38 0
1 2 3 4 5 6 -7 8 9 10 -11 12 13 14 15 -16 -17 18 19 20 21 22 23 24 -25 -26 -27 28 29 30 -31 32 33 34 -35 36 37 38 0
1 2 3 4 5 6 7 8 9 10 11 12 13 14 -15 -16 17 18 19 -20 21 -22 23 24 -25 26 27 28 -29 30 -31 32 33 -34 -35 36 37 -38 0
1 2 3 4 5 6 -7 8 9 10 -11 12 13 14 15 -16 -17 18 19 20 21 22 23 24 -25 -26 -27 28 29 30 -31 32 -33 34 35 36 37 -38 0
1 2 3 4 5 6 -7 8 9 10 -11 12 13 14 15 -16 17 18 19 20 21 22 -23 24 -25 -26 -27 28 29 30 -31 32 33 34 -35 36 37 38 0
1 2 3 4 5 6 7 -8 9 -10 11 12 13 -14 15 -16 17 18 -19 20 21 -22 23 24 -25 -26 27 28 29 30 31 32 33 34 35 36 37 -38 0
1 2 3 4 5 6 -7 8 9 10 -11 12 13 14 15 -16 -17 18 19 20 21 22 23 24 25 26 -27 -28 29 -30 31 32 33 -34 35 -36 37 38 0
1 2 3 4 5 6 7 -8 9 -10 -11 12 13 14 -15 16 17 -18 -19 20 -21 22 23 24 -25 26 27 28 29 30 31 32 33 34 35 36 -37 38 0
1 2 3 4 5 6 7 8 9 10 11 12 13 14 15 16 17 -18 -19 -20 21 22 23 24 25 -26 27 -28 29 -30 31 -32 -33 34 35 -36 -37 38 0
1 2 3 4 5 6 -7 8 9 10 -11 12 13 14 -15 16 -17 18 19 -20 21 -22 23 24 -25 26 27 -28 -29 30 31 32 33 34 35 36 37 38 0
1 2 3 4 5 6 7 -8 9 -10 -11 12 13 14 -15 16 17 -18 -19 20 21 -22 23 24 -25 -26 27 28 29 30 31 32 33 34 35 36 37 38 0
1 -2 -3 4 5 -6 7 8 9 10 11 -12 13 14 15 16 17 18 19 20 21 22 23 24 25 26 27 28 -29 -30 31 -32 -33 34 -35 36 37 -38 0
1 2 3 4 5 6 -7 8 9 10 -11 12 13 14 15 16 -17 -18 -19 -20 21 22 23 24 25 -26 27 28 29 -30 31 32 33 34 35 36 -37 38 0
1 2 3 4 5 6 7 8 9 10 -11 12 -13 -14 -15 -16 17 -18 19 20 21 22 23 -24 -25 26 27 28 29 -30 31 32 33 34 35 36 37 -38 0
1 2 -3 -4 5 -6 7 8 9 10 11 12 13 14 -15 16 17 18 19 -20 21 -22 23 -24 25 -26 27 28 -29 30 31 32 33 34 35 36 37 -38 0
1 2 3 4 5 6 7 8 9 10 11 -12 13 14 15 16 -17 18 19 20 21 22 23 24 25 -26 -27 -28 -29 30 31 32 -33 -34 -35 36 37 -38 0
1 2 -3 -4 5 -6 7 8 9 10 11 12 13 14 -15 16 17 18 19 -20 21 -22 23 24 -25 -26 27 28 29 30 31 32 33 34 35 36 37 -38 0
1 -2 -3 4 5 -6 7 8 9 10 11 -12 13 14 15 16 17 -18 -19 -20 21 22 23 24 25 -26 27 28 -29 30 31 32 33 34 35 36 37 -38 0
1 2 -3 -4 5 -6 7 8 9 10 11 12 13 14 15 16 17 -18 -19 -20 21 22 23 24 25 -26 27 28 29 -30 31 32 33 34 35 36 -37 38 0
1 -2 -3 4 5 -6 7 8 9 10 11 -12 13 14 15 16 17 18 19 -20 -21 22 23 -24 25 -26 27 28 -29 30 31 32 33 34 35 36 37 -38 0
1 -2 -3 4 5 -6 7 8 9 10 11 -12 13 14 15 16 17 18 19 20 21 22 23 24 25 26 27 -28 29 30 -31 32 33 -34 -35 36 37 -38 0
1 2 3 4 5 6 -7 8 9 10 -11 12 -13 -14 -15 -16 17 -18 19 20 21 22 23 24 -25 26 27 28 -29 30 31 32 33 34 35 36 37 -38 0
1 2 -3 -4 5 -6 7 8 9 10 11 -12 13 14 15 16 17 18 19 20 21 22 23 24 25 -26 -27 28 -29 30 -31 32 -33 34 35 36 37 -38 0
1 2 -3 -4 5 -6 7 8 9 10 11 12 13 14 15 16 17 18 19 20 21 -22 23 24 25 26 -27 -28 29 30 31 32 33 -34 -35 36 37 -38 0
1 2 -3 -4 5 -6 7 8 9 10 11 -12 13 14 15 16 17 -18 -19 -20 21 22 23 24 25 -26 27 28 29 -30 31 32 33 34 35 36 37 38 0
1 2 -3 -4 5 -6 7 8 9 10 11 12 13 14 -15 16 17 18 19 -20 21 -22 23 24 25 -26 -27 28 29 30 31 32 33 34 35 36 37 -38 0
1 2 3 4 5 6 -7 8 9 10 -11 12 13 14 -15 16 -17 18 19 20 21 -22 23 24 -25 26 -27 28 29 -30 31 32 33 34 35 36 37 -38 0
1 2 3 4 5 6 -7 8 9 10 -11 12 13 14 15 -16 17 18 19 20 21 22 -23 24 25 26 27 28 29 -30 -31 -32 33 34 35 -36 -37 38 0
1 2 -3 -4 5 -6 7 8 9 10 11 -12 13 14 15 16 17 -18 -19 -20 21 22 23 24 25 -26 27 28 -29 30 31 32 33 34 35 36 37 -38 0
1 2 -3 -4 5 -6 7 8 9 10 11 -12 13 14 15 16 17 18 19 20 21 22 23 24 25 26 27 -28 29 30 -31 32 33 -34 -35 36 37 -38 0
1 2 3 4 5 6 7 8 9 10 -11 12 -13 -14 -15 -16 17 -18 19 20 21 22 23 -24 -25 26 27 28 29 -30 31 32 -33 34 35 36 37 38 0
1 2 -3 -4 5 -6 7 8 9 10 11 -12 13 14 15 16 17 18 19 -20 -21 22 23 -24 25 -26 27 28 -29 30 31 32 33 34 35 36 37 -38 0
1 2 -3 -4 5 -6 7 8 9 10 11 -12 13 14 15 16 17 18 19 20 21 22 23 24 25 26 27 28 -29 -30 31 -32 -33 34 -35 36 37 -38 0
1 2 -3 -4 5 -6 7 8 9 10 11 -12 13 14 15 16 17 18 19 20 21 22 23 -24 -25 26 27 -28 -29 30 31 -32 33 34 35 36 37 -38 0
1 2 3 4 5 6 7 8 -9 -10 11 12 -13 14 15 -16 17 18 -19 20 21 -22 23 24 -25 -26 27 28 29 30 31 32 33 34 35 36 37 -38 0
1 2 3 4 5 6 -7 8 9 10 11 -12 13 14 15 16 17 -18 -19 -20 21 22 23 24 25 -26 27 -28 29 -30 31 -32 33 34 35 36 37 38 0
1 -2 -3 4 5 -6 7 8 9 10 11 -12 13 14 15 16 17 18 19 20 -21 22 23 24 -25 26 -27 28 29 -30 31 32 33 34 35 36 37 -38 0
1 2 -3 -4 5 -6 7 8 9 10 11 -12 13 14 15 16 17 18 19 20 -21 22 23 24 -25 26 -27 28 29 -30 31 32 33 34 35 36 37 -38 0
1 -2 -3 4 5 -6 7 8 9 10 11 -12 13 14 15 16 17 -18 -19 -20 21 22 23 24 25 -26 27 28 29 -30 31 32 33 34 35 36 37 38 0
1 2 3 4 5 6 -7 8 9 10 -11 12 13 14 15 16 -17 -18 -19 -20 21 22 23 24 25 -26 27 28 -29 30 -31 32 -33 34 35 36 37 38 0
1 -2 -3 4 5 -6 7 8 9 10 11 -12 13 14 15 16 17 18 19 20 21 22 23 24 25 -26 27 28 -29 30 -31 32 33 -34 35 36 -37 38 0
1 2 3 4 5 6 7 8 9 10 11 12 13 14 15 -16 17 18 19 20 21 -22 -23 24 -25 -26 27 28 29 30 -31 32 33 -34 -35 36 37 -38 0
1 2 3 4 5 6 7 8 9 10 11 -12 13 14 15 -16 17 18 19 20 21 -22 -23 24 25 26 27 28 -29 -30 -31 -32 33 34 35 36 -37 38 0
1 -2 -3 4 5 -6 7 8 9 10 11 -12 13 14 15 16 17 18 19 20 21 22 -23 -24 -25 26 27 -28 -29 30 31 32 33 34 35 36 37 -38 0
1 2 -3 -4 5 -6 7 8 9 10 11 12 13 14 15 16 17 18 19 -20 -21 22 23 -24 25 26 -27 28 -29 30 -31 32 -33 34 35 36 37 38 0
1 2 3 4 5 6 7 -8 9 -10 -11 12 13 -14 15 -16 17 18 -19 20 21 22 23 24 25 26 27 28 29 -30 31 32 33 -34 35 -36 37 38 0
1 -2 -3 4 5 -6 7 8 9 10 11 -12 13 14 15 16 17 18 19 20 21 22 23 24 25 -26 -27 28 -29 30 -31 32 -33 34 35 36 37 -38 0
1 2 -3 -4 5 -6 7 8 9 10 11 12 13 14 15 16 17 -18 -19 -20 21 22 23 24 25 -26 27 28 -29 30 -31 32 -33 34 35 36 37 38 0
1 2 3 4 5 6 -7 8 9 10 -11 12 13 14 15 -16 17 18 19 -20 -21 22 -23 24 25 -26 27 28 29 -30 31 32 33 34 35 36 37 -38 0
1 2 3 4 5 6 -7 8 9 10 -11 12 13 14 15 -16 -17 18 19 20 21 22 23 24 -25 -26 -27 28 29 30 -31 32 33 34 35 36 37 -38 0
1 2 3 4 5 6 7 8 9 10 11 12 13 14 15 16 17 18 19 -20 -21 22 -23 24 25 -26 27 -28 29 -30 31 32 33 -34 -35 36 37 -38 0
1 2 -3 -4 5 -6 7 8 9 10 11 12 13 14 15 16 17 18 19 20 -21 -22 23 24 -25 26 -27 28 29 30 31 -32 33 34 35 36 37 -38 0
1 2 -3 -4 5 -6 7 8 9 10 11 -12 13 14 15 16 17 18 19 20 21 22 23 24 25 -26 27 28 -29 30 -31 32 33 -34 35 36 -37 38 0
1 2 -3 -4 5 -6 7 8 9 10 11 12 13 14 15 16 17 18 19 20 21 22 23 24 -25 -26 27 -28 29 -30 31 -32 33 34 35 36 37 -38 0
1 2 3 4 5 6 7 8 9 10 11 12 13 14 -15 -16 17 18 19 20 21 -22 23 24 25 -26 27 28 29 -30 -31 -32 33 34 35 -36 -37 38 0
1 2 -3 -4 5 -6 7 8 9 10 11 12 13 14 15 16 17 18 19 20 21 22 23 -24 -25 26 27 28 29 -30 31 -32 -33 34 -35 36 37 -38 0
1 -2 -3 4 5 -6 7 8 9 10 11 -12 13 14 15 16 17 18 19 -20 21 22 23 -24 25 -26 27 28 29 -30 31 32 33 34 35 36 -37 38 0
1 2 -3 -4 5 -6 7 8 9 10 11 12 13 14 15 16 17 18 19 20 -21 -22 23 24 -25 26 -27 28 29 -30 31 32 33 34 35 36 37 -38 0
1 2 -3 -4 5 -6 7 8 9 10 11 -12 13 14 15 16 17 18 19 -20 21 22 23 -24 25 -26 27 28 29 -30 31 32 33 34 35 36 -37 38 0
1 2 3 4 5 6 7 8 9 10 11 12 -13 -14 -15 16 17 -18 19 20 21 -22 23 -24 -25 26 -27 28 29 -30 31 32 33 34 35 36 37 -38 0
1 2 3 4 5 6 -7 8 9 10 -11 12 13 14 15 -16 17 18 19 -20 -21 22 23 -24 25 26 27 28 -29 -30 31 32 33 -34 35 -36 37 38 0
1 2 -3 -4 5 -6 7 8 9 10 11 12 13 14 15 16 17 18 19 20 21 22 23 24 -25 -26 27 28 29 30 -31 32 33 -34 -35 36 37 -38 0
1 -2 -3 4 5 -6 7 8 9 10 11 -12 13 14 15 16 17 18 19 20 21 22 23 -24 -25 26 27 -28 -29 30 31 -32 33 34 35 36 37 -38 0
1 2 -3 -4 5 -6 7 8 9 10 11 12 13 14 15 16 17 18 19 -20 21 22 23 -24 25 -26 27 -28 29 -30 31 -32 33 34 35 36 37 38 0
1 2 3 4 5 6 7 8 -9 -10 11 12 -13 14 15 -16 17 -18 19 20 -21 -22 23 24 25 26 27 28 29 30 31 32 -33 -34 35 -36 37 38 0
1 2 3 4 5 6 7 8 9 10 11 12 13 14 -15 -16 17 18 19 20 21 -22 23 24 -25 26 27 28 29 -30 -31 -32 33 34 35 -36 -37 38 0
1 2 3 4 5 6 -7 8 9 10 -11 12 13 14 15 -16 17 18 19 -20 -21 22 -23 -24 25 -26 27 28 29 -30 31 32 33 34 35 36 37 38 0
1 2 -3 -4 5 -6 7 8 9 10 11 -12 13 14 15 16 17 18 19 20 21 22 -23 -24 -25 26 27 -28 -29 30 31 32 33 34 35 36 37 -38 0
1 2 3 4 5 6 7 8 9 10 -11 12 13 14 15 -16 -17 18 19 20 21 22 23 24 25 26 -27 -28 29 -30 31 32 33 -34 -35 36 37 -38 0
1 2 3 4 5 6 -7 8 9 10 11 -12 13 14 15 16 17 18 19 -20 21 22 23 -24 25 -26 27 28 -29 30 -31 32 33 -34 -35 36 37 -38 0
1 2 3 4 5 6 -7 8 9 10 11 -12 13 14 15 16 17 18 19 20 21 22 23 -24 -25 26 -27 28 -29 30 -31 -32 33 34 35 -36 -37 38 0
1 2 3 4 5 6 -7 8 9 10 -11 12 13 14 15 16 -17 18 19 20 21 22 23 24 -25 -26 27 28 29 30 -31 32 33 -34 -35 36 37 -38 0
1 2 3 4 5 6 7 8 9 10 11 12 13 14 -15 -16 17 18 19 -20 21 -22 23 -24 25 26 27 -28 29 30 31 32 -33 -34 -35 36 37 -38 0
1 2 3 4 5 6 7 8 9 10 11 -12 13 14 15 16 -17 18 19 -20 21 22 23 -24 25 -26 27 28 -29 30 -31 32 33 -34 -35 36 37 -38 0
1 2 3 4 5 6 7 8 9 10 11 12 13 14 -15 -16 17 18 19 20 -21 -22 23 24 25 26 27 28 29 -30 -31 -32 33 34 35 -36 -37 38 0
1 2 3 4 5 6 -7 8 9 10 11 -12 13 14 15 16 17 18 19 20 -21 22 23 24 -25 26 -27 28 29 30 -31 32 33 -34 -35 36 37 -38 0
1 2 3 4 5 6 7 8 9 10 11 12 13 14 -15 -16 17 18 19 20 21 -22 23 -24 -25 -26 27 28 29 30 -31 -32 33 -34 35 36 37 38 0
1 2 3 4 5 6 7 8 9 10 -11 12 13 14 15 -16 -17 18 19 -20 -21 22 23 -24 25 26 -27 28 -29 30 -31 32 -33 34 35 36 37 38 0
1 2 3 4 5 6 -7 8 9 10 -11 12 13 14 15 -16 -17 18 19 20 21 22 23 24 -25 -26 -27 28 29 30 -31 32 -33 34 35 36 37 38 0
1 2 3 4 5 6 -7 8 9 10 -11 12 13 14 15 -16 17 18 19 20 21 22 -23 24 -25 -26 -27 28 29 30 -31 32 -33 34 35 36 37 38 0
1 2 3 4 5 6 -7 8 9 10 -11 12 13 14 15 -16 17 18 19 20 21 22 -23 24 -25 -26 -27 28 29 30 -31 32 33 34 35 36 37 -38 0
1 2 3 4 5 6 -7 8 9 10 -11 12 13 14 15 16 -17 18 19 20 21 22 23 -24 -25 26 27 28 29 -30 31 -32 -33 34 -35 36 37 -38 0
1 2 3 4 5 6 7 8 9 10 -11 12 13 14 15 -16 -17 18 19 20 21 22 23 24 -25 -26 -27 -28 29 30 -31 32 33 34 35 36 37 -38 0
1 2 -3 -4 5 -6 7 8 9 10 11 -12 13 14 15 16 17 18 19 20 21 22 -23 24 25 26 -27 28 29 30 31 -32 33 34 35 36 -37 38 0
1 2 3 4 5 6 -7 8 9 10 -11 12 -13 -14 -15 -16 17 -18 19 20 21 22 23 24 -25 26 27 28 -29 30 31 32 33 34 35 36 37 38 0
1 -2 -3 4 5 -6 7 8 9 10 11 -12 13 14 15 16 17 18 19 20 21 22 23 -24 -25 26 27 -28 -29 30 31 -32 33 34 35 36 37 38 0
1 2 3 4 5 6 7 8 9 10 -11 12 13 14 15 -16 -17 18 19 20 21 22 23 24 -25 -26 -27 -28 29 30 -31 32 33 34 35 36 37 38 0
1 2 3 4 5 6 7 8 -9 -10 11 12 13 -14 15 -16 17 18 19 -20 21 -22 23 24 25 -26 27 28 29 30 31 32 33 34 35 36 -37 38 0
1 2 -3 -4 5 -6 7 8 9 10 11 -12 13 14 15 16 17 18 19 20 21 22 23 24 25 -26 -27 28 -29 30 -31 32 -33 34 35 36 37 38 0
1 -2 -3 4 5 -6 7 8 9 10 11 -12 13 14 15 16 17 18 19 20 21 22 23 24 25 26 27 -28 29 30 -31 32 33 -34 35 36 -37 38 0
1 2 3 4 5 6 7 8 9 10 -11 12 -13 -14 -15 -16 17 -18 19 20 21 22 23 -24 -25 26 27 28 29 -30 31 32 33 34 35 36 37 38 0
1 2 3 4 5 6 -7 8 9 10 -11 12 13 14 15 16 -17 -18 -19 -20 21 22 23 24 25 -26 27 28 -29 30 31 32 33 34 35 36 -37 38 0
1 2 3 4 5 6 7 8 9 10 11 12 13 14 15 16 -17 18 19 20 21 -22 23 24 -25 -26 -27 28 29 30 31 32 -33 -34 -35 36 37 -38 0
1 2 3 4 5 6 -7 8 9 10 -11 12 13 14 15 -16 -17 18 19 20 21 22 23 24 -25 -26 -27 28 29 30 -31 32 33 34 35 36 37 38 0
1 2 -3 -4 5 -6 7 8 9 10 11 12 13 14 -15 16 17 18 19 -20 21 -22 23 24 25 -26 -27 28 29 30 31 32 33 34 35 36 37 38 0
1 2 3 4 5 6 7 -8 9 -10 11 12 13 -14 15 -16 17 18 -19 20 21 -22 23 24 -25 -26 27 28 29 30 31 32 33 34 35 36 37 38 0
1 2 3 4 5 6 7 -8 9 -10 -11 12 13 14 -15 16 17 -18 -19 20 -21 22 23 24 -25 26 27 28 29 30 31 32 33 34 35 36 37 -38 0
1 2 -3 -4 5 -6 7 8 9 10 11 12 13 14 15 16 17 18 19 20 21 22 23 24 -25 -26 27 -28 29 -30 31 -32 33 34 35 36 37 38 0
1 2 3 4 5 6 7 -8 9 -10 -11 12 13 -14 15 -16 17 18 -19 20 21 22 23 24 25 26 27 28 29 -30 31 32 33 -34 35 36 37 38 0
1 -2 -3 4 5 -6 7 8 9 10 11 -12 13 14 15 16 17 18 19 20 21 22 -23 24 25 26 -27 28 29 30 31 -32 33 34 35 36 -37 38 0
1 2 3 4 5 6 -7 8 9 10 -11 12 13 14 15 -16 17 18 19 20 21 22 -23 -24 -25 26 27 28 29 -30 31 32 33 -34 35 -36 37 38 0
1 2 3 4 5 6 -7 8 9 10 11 -12 13 14 15 16 17 -18 -19 -20 21 22 23 24 25 -26 27 28 -29 30 -31 32 33 -34 35 36 37 38 0
1 -2 -3 4 5 -6 7 8 -9 -10 11 12 -13 14 15 16 17 18 -19 20 21 22 23 24 25 26 27 28 29 30 31 32 33 34 35 36 -37 38 0
1 2 -3 -4 5 -6 7 8 -9 -10 11 12 -13 14 15 16 17 18 -19 20 21 22 23 24 25 26 27 28 29 30 31 32 33 34 35 36 -37 38 0
1 2 3 4 5 6 7 8 9 10 11 -12 13 14 15 -16 17 18 19 20 21 -22 -23 24 25 26 27 28 29 30 -31 -32 -33 34 35 -36 -37 38 0
1 2 3 4 5 6 7 8 9 10 11 12 13 14 15 16 17 18 19 20 21 -22 23 24 -25 -26 -27 -28 29 30 31 32 -33 -34 -35 36 37 -38 0
1 2 -3 -4 5 -6 7 8 9 10 11 -12 13 14 15 16 17 18 19 20 21 22 23 24 -25 -26 27 28 29 -30 31 32 33 34 35 36 -37 38 0
1 2 3 4 5 6 7 -8 9 -10 -11 12 13 -14 15 -16 17 18 -19 20 21 22 23 24 25 26 27 28 29 30 31 -32 33 34 -35 36 37 38 0
1 2 3 4 5 6 -7 8 9 10 -11 12 13 14 15 -16 -17 18 19 20 21 22 23 24 25 26 -27 -28 29 -30 31 32 33 -34 35 36 37 38 0
1 2 3 4 5 6 -7 8 9 10 -11 12 13 14 15 16 -17 -18 -19 -20 21 22 23 24 25 -26 27 28 29 -30 31 32 33 34 35 36 37 -38 0
1 2 3 4 5 6 7 8 -9 -10 11 12 13 -14 15 16 17 18 19 -20 21 -22 23 24 25 -26 -27 28 29 30 31 32 33 34 35 36 -37 38 0
1 2 3 4 5 6 -7 8 9 10 11 -12 13 14 15 16 17 18 19 -20 -21 22 23 -24 25 26 -27 28 -29 30 -31 32 -33 34 35 36 37 -38 0
1 2 -3 -4 5 -6 7 8 9 10 11 12 13 14 15 16 17 18 19 20 21 22 23 24 -25 26 27 28 29 -30 31 -32 -33 34 -35 36 37 -38 0
1 2 -3 -4 5 -6 7 8 9 10 11 -12 13 14 15 16 17 18 19 20 -21 22 23 24 -25 26 -27 28 29 -30 31 32 33 34 35 36 37 38 0
1 2 3 4 5 6 7 8 9 10 11 12 -13 -14 -15 16 17 18 -19 20 21 -22 23 24 25 26 -27 28 29 30 31 -32 33 34 35 36 -37 38 0
1 -2 -3 4 5 -6 7 8 9 10 11 -12 13 14 15 16 17 18 19 20 21 22 23 24 25 -26 -27 28 -29 30 -31 32 -33 34 35 36 37 38 0
1 2 3 4 5 6 7 8 9 10 11 12 13 14 15 16 -17 18 19 20 21 -22 23 24 -25 -26 -27 28 29 30 31 -32 33 -34 35 36 -37 38 0
1 2 -3 -4 5 -6 7 8 9 10 11 -12 13 14 15 16 17 18 19 20 21 22 23 24 -25 -26 27 28 29 30 -31 32 -33 34 35 36 37 -38 0
1 -2 -3 4 5 -6 7 8 9 10 11 -12 13 14 15 16 17 18 19 20 21 22 23 24 -25 -26 27 28 29 -30 31 32 33 34 35 36 -37 38 0
1 2 3 4 5 6 7 8 -9 -10 11 12 -13 14 15 -16 17 18 -19 20 21 -22 23 24 25 26 27 -28 29 30 31 32 33 34 35 36 -37 38 0
1 2 -3 -4 5 -6 7 8 9 10 11 -12 13 14 15 16 17 18 19 20 21 22 23 -24 -25 26 27 -28 -29 30 31 -32 33 34 35 36 37 38 0
1 -2 -3 4 5 -6 7 8 9 10 11 -12 13 14 15 16 17 18 19 20 21 22 23 -24 -25 26 27 28 -29 30 31 -32 33 34 -35 36 37 38 0
1 -2 -3 4 5 -6 7 8 9 10 11 -12 13 14 15 16 17 18 19 20 21 22 -23 24 25 26 -27 28 29 30 -31 32 33 34 -35 36 37 38 0
1 2 3 4 5 6 7 8 9 10 11 12 -13 -14 -15 16 17 18 -19 20 21 -22 23 24 25 -26 -27 28 29 30 31 32 33 34 35 36 -37 38 0
1 2 3 4 5 6 7 8 9 10 11 -12 13 14 15 -16 17 18 19 20 21 -22 23 24 -25 -26 27 -28 29 30 -31 32 33 -34 35 36 37 38 0
1 2 3 4 5 6 7 8 9 10 11 12 -13 -14 -15 16 17 -18 19 20 21 -22 23 -24 -25 -26 27 28 29 30 31 32 33 34 35 36 -37 38 0
1 2 3 4 5 6 7 8 9 10 -11 12 -13 -14 -15 -16 17 -18 19 20 21 22 23 24 -25 26 27 28 -29 30 31 32 33 34 35 36 -37 38 0
1 -2 -3 4 5 -6 7 8 9 10 11 -12 13 14 15 16 17 18 19 -20 -21 22 23 -24 25 -26 27 28 -29 30 31 32 33 34 35 36 37 38 0
1 2 3 4 5 6 -7 8 9 10 -11 12 13 14 15 16 -17 18 19 20 21 22 23 24 25 -26 27 28 -29 30 -31 32 33 -34 -35 36 37 -38 0
1 2 -3 -4 5 -6 7 8 9 10 11 12 13 14 15 16 17 18 19 -20 -21 22 23 -24 25 -26 27 28 -29 30 31 32 33 34 35 36 -37 38 0
1 2 -3 -4 5 -6 7 8 9 10 11 12 13 14 15 16 17 18 19 20 -21 -22 23 24 25 -26 -27 28 29 30 31 32 33 34 35 36 -37 38 0
1 -2 -3 4 5 -6 7 8 9 10 11 -12 13 14 15 16 17 18 19 20 -21 22 23 24 -25 26 -27 28 29 -30 31 32 33 34 35 36 37 38 0
1 2 3 4 5 6 7 8 9 10 11 -12 13 14 15 16 -17 -18 -19 -20 21 22 23 24 25 -26 27 28 -29 30 -31 32 -33 34 35 36 37 -38 0
1 2 3 4 5 6 7 8 -9 -10 11 12 -13 14 15 -16 17 18 -19 20 21 -22 23 24 -25 -26 27 28 29 30 31 32 33 34 35 36 37 38 0
1 2 -3 -4 5 -6 7 8 9 10 11 -12 13 14 15 16 17 18 19 20 21 22 23 24 25 26 27 -28 29 30 -31 32 33 -34 35 36 -37 38 0
1 -2 -3 4 5 -6 7 8 9 10 11 -12 13 14 15 16 17 18 19 -20 21 22 23 -24 25 -26 27 28 29 -30 31 32 33 34 35 36 37 -38 0
1 2 3 4 5 6 -7 8 9 10 -11 12 13 14 15 -16 17 18 19 20 21 22 -23 24 25 26 27 28 29 -30 -31 -32 33 34 35 36 -37 38 0
1 2 -3 -4 5 -6 7 8 9 10 11 12 13 14 -15 16 17 18 19 -20 21 -22 23 24 25 -26 27 28 29 30 31 32 33 34 35 36 -37 38 0
1 2 3 4 5 6 7 -8 9 -10 -11 12 13 -14 15 -16 17 18 -19 20 21 22 23 24 25 26 27 28 29 30 31 32 -33 -34 35 -36 37 38 0
1 -2 -3 4 5 -6 7 8 9 10 11 -12 13 14 15 16 17 18 19 20 21 22 23 -24 -25 26 27 28 29 -30 31 32 33 -34 35 -36 37 38 0
1 2 -3 -4 5 -6 7 8 9 10 11 12 13 14 -15 16 17 18 19 -20 21 -22 23 -24 25 -26 27 28 -29 30 31 32 33 34 35 36 37 38 0
1 2 3 4 5 6 7 8 9 10 11 12 -13 -14 -15 16 17 -18 19 20 21 -22 23 -24 -25 26 -27 28 29 -30 31 32 33 34 35 36 37 38 0
1 2 -3 -4 5 -6 7 8 9 10 11 12 13 14 15 16 17 -18 -19 -20 21 22 23 24 25 -26 27 28 29 -30 31 32 33 34 35 36 37 -38 0
1 2 3 4 5 6 7 8 9 10 11 -12 13 14 15 16 -17 18 19 -20 21 22 23 -24 25 -26 27 28 -29 30 -31 32 33 -34 35 36 -37 38 0
1 2 -3 -4 5 -6 7 8 9 10 11 12 13 14 15 16 17 18 19 20 21 22 23 -24 -25 26 27 -28 -29 30 31 -32 33 34 35 36 -37 38 0
1 2 3 4 5 6 -7 8 9 10 -11 12 13 14 -15 16 -17 18 19 20 -21 22 23 24 -25 -26 27 28 29 30 31 32 33 34 35 36 -37 38 0
1 2 3 4 5 6 -7 8 9 10 11 -12 13 14 15 16 17 18 19 -20 21 22 23 -24 25 -26 27 28 -29 30 -31 32 33 -34 35 36 -37 38 0
1 2 -3 -4 5 -6 7 8 9 10 11 12 13 14 15 16 17 -18 -19 -20 21 22 23 24 25 -26 27 28 -29 30 31 32 33 34 35 36 -37 38 0
1 2 3 4 5 6 -7 8 9 10 -11 12 13 14 15 16 -17 18 19 20 21 22 23 24 -25 -26 27 28 29 30 -31 32 -33 34 35 -36 -37 38 0
1 2 -3 -4 5 -6 7 8 9 10 11 -12 13 14 15 16 17 18 19 -20 21 22 23 -24 25 -26 27 28 -29 30 31 32 33 34 35 36 -37 38 0
1 -2 -3 4 5 -6 7 8 9 10 11 -12 13 14 15 16 17 18 19 -20 21 22 23 -24 25 -26 27 28 -29 30 31 32 33 34 35 36 -37 38 0
1 2 3 4 5 6 -7 8 9 10 -11 12 13 14 15 -16 -17 18 19 20 21 22 23 24 25 26 -27 -28 29 30 -31 32 33 34 -35 36 37 38 0
1 2 -3 -4 5 -6 7 8 9 10 11 12 13 14 15 16 17 18 19 20 21 22 23 24 25 -26 27 28 -29 30 -31 32 33 -34 -35 36 37 -38 0
1 2 -3 -4 5 -6 7 8 9 10 11 12 13 14 15 16 17 18 19 20 21 22 -23 -24 -25 26 27 -28 -29 30 31 32 33 34 35 36 -37 38 0
1 2 -3 -4 5 -6 7 8 9 10 11 -12 13 14 15 16 17 18 19 -20 -21 22 23 -24 25 -26 27 28 -29 30 31 32 33 34 35 36 37 38 0
1 2 -3 -4 5 -6 7 8 9 10 11 -12 13 14 15 16 17 -18 -19 -20 21 22 23 24 25 -26 27 28 -29 30 31 32 33 34 35 36 37 38 0
1 2 -3 -4 5 -6 7 8 9 10 11 -12 13 14 15 16 17 18 19 20 21 22 -23 24 25 26 -27 28 29 30 -31 32 33 34 -35 36 37 38 0
1 2 -3 -4 5 -6 7 8 9 10 11 12 13 14 15 16 17 18 19 20 21 22 23 24 -25 -26 27 28 29 30 -31 32 -33 34 35 -36 -37 38 0
1 2 -3 -4 5 -6 7 8 9 10 11 12 13 14 15 16 17 18 19 20 -21 -22 23 24 -25 26 -27 28 29 30 31 -32 33 34 35 36 37 38 0
1 2 -3 -4 5 -6 7 8 9 10 11 -12 13 14 15 16 17 18 19 20 21 22 23 -24 -25 26 27 28 29 -30 31 32 33 -34 35 -36 37 38 0
1 2 3 4 5 6 7 8 9 10 11 12 13 14 15 -16 17 18 19 20 21 -22 -23 24 -25 -26 27 28 29 30 -31 32 33 -34 35 36 -37 38 0
1 -2 -3 4 5 -6 7 8 9 10 11 -12 13 14 15 16 17 -18 -19 -20 21 22 23 24 25 -26 27 28 -29 30 31 32 33 34 35 36 37 38 0
1 2 -3 -4 5 -6 7 8 9 10 11 12 13 14 15 16 17 18 19 20 21 22 -23 24 25 26 27 -28 29 30 31 32 -33 -34 -35 36 37 -38 0
1 2 3 4 5 6 -7 8 9 10 11 -12 13 14 15 16 17 18 19 20 -21 -22 -23 24 -25 26 -27 28 29 30 31 32 33 34 35 36 -37 38 0
1 -2 -3 4 5 -6 7 8 9 10 11 -12 13 14 15 16 17 18 19 20 21 22 -23 -24 -25 26 27 -28 -29 30 31 32 33 34 35 36 37 38 0
1 2 -3 -4 5 -6 7 8 9 10 11 12 13 14 15 16 17 18 19 20 -21 -22 23 24 -25 26 -27 28 29 30 31 32 33 34 35 36 -37 38 0
1 2 3 4 5 6 7 -8 9 -10 -11 12 13 -14 15 -16 17 18 -19 20 21 22 -23 24 25 26 27 28 29 30 31 32 33 34 35 36 -37 38 0
1 2 3 4 5 6 7 8 9 10 11 12 13 14 -15 -16 17 18 19 20 -21 -22 23 24 25 26 27 28 29 -30 -31 -32 33 34 35 36 -37 38 0
1 -2 -3 4 5 -6 7 8 9 10 11 -12 13 14 15 16 17 18 19 20 21 22 23 24 -25 -26 27 28 29 30 -31 32 33 -34 35 36 37 38 0
1 2 -3 -4 5 -6 7 8 9 10 11 -12 13 14 15 16 17 18 19 20 21 22 -23 -24 -25 26 27 -28 -29 30 31 32 33 34 35 36 37 38 0
1 2 3 4 5 6 7 8 9 10 11 -12 13 14 15 -16 17 18 19 20 21 -22 23 24 -25 -26 27 28 29 30 -31 -32 33 -34 35 36 37 38 0
1 2 3 4 5 6 7 8 9 10 11 -12 13 14 15 16 -17 -18 -19 -20 21 22 23 24 25 -26 27 28 -29 30 -31 32 33 -34 35 36 37 38 0
1 2 -3 -4 5 -6 7 8 9 10 11 -12 13 14 15 16 17 18 19 -20 21 22 23 -24 25 -26 27 28 29 -30 31 32 33 34 35 36 37 -38 0
1 2 3 4 5 6 -7 8 9 10 -11 12 13 14 15 16 -17 18 19 20 21 22 23 24 25 -26 -27 -28 -29 30 31 32 33 -34 35 -36 37 38 0
1 2 3 4 5 6 -7 8 9 10 11 -12 13 14 15 16 17 18 19 -20 21 22 23 -24 25 -26 27 -28 29 -30 31 -32 33 34 35 36 37 -38 0
1 2 -3 -4 5 -6 7 8 9 10 11 12 13 14 15 16 17 18 19 20 21 22 23 24 -25 -26 27 28 29 30 -31 32 33 -34 35 36 -37 38 0
1 2 -3 -4 5 -6 7 8 9 10 11 12 13 14 -15 16 17 18 19 -20 21 -22 23 24 -25 -26 27 28 29 30 31 32 33 34 35 36 37 38 0
1 2 -3 -4 5 -6 7 8 9 10 11 -12 13 14 15 16 17 18 19 20 21 22 23 24 -25 -26 27 28 29 30 -31 32 33 -34 35 36 37 38 0
1 2 3 4 5 6 -7 8 9 10 -11 12 13 14 -15 16 -17 18 19 20 21 -22 23 24 -25 26 -27 28 29 -30 31 32 33 34 35 36 37 38 0
1 2 3 4 5 6 -7 8 9 10 -11 12 13 14 15 -16 17 18 19 -20 -21 22 23 -24 25 26 27 28 -29 -30 31 32 33 -34 35 36 37 38 0
1 2 -3 -4 5 -6 7 8 9 10 11 12 13 14 15 16 17 18 19 20 -21 -22 23 24 25 26 -27 28 29 -30 31 32 33 34 35 36 -37 38 0
1 2 3 4 5 6 7 8 9 10 11 12 13 14 15 -16 17 18 19 20 21 -22 -23 24 25 26 27 28 -29 -30 -31 -32 33 34 35 -36 -37 38 0
1 2 3 4 5 6 7 8 9 10 11 -12 13 14 15 -16 17 18 19 20 21 22 -23 24 -25 -26 -27 28 29 30 -31 32 -33 34 35 36 37 -38 0
1 2 3 4 5 6 7 8 9 10 11 12 13 14 -15 -16 17 18 19 20 21 -22 23 24 25 -26 27 28 29 -30 -31 -32 33 34 35 36 -37 38 0
1 2 3 4 5 6 7 8 9 10 11 -12 13 14 15 -16 17 18 19 20 21 -22 -23 24 -25 -26 27 28 29 30 -31 32 33 -34 35 36 37 38 0
1 2 -3 -4 5 -6 7 8 9 10 11 12 13 14 15 16 17 18 19 20 -21 -22 23 24 -25 26 -27 28 29 -30 31 32 33 34 35 36 37 38 0
1 -2 -3 4 5 -6 7 8 9 10 11 -12 13 14 15 16 17 18 19 20 21 22 23 24 -25 -26 27 28 29 30 -31 32 -33 34 35 36 37 -38 0
1 2 -3 -4 5 -6 7 8 9 10 11 12 13 14 15 16 17 18 19 -20 21 22 23 -24 25 -26 27 28 -29 30 -31 32 33 -34 35 36 37 38 0
1 2 3 4 5 6 -7 8 9 10 -11 12 13 14 15 16 -17 18 19 -20 21 22 23 -24 25 -26 27 28 -29 30 -31 32 33 -34 35 36 37 38 0
1 2 -3 -4 5 -6 7 8 9 10 11 12 13 14 15 16 17 18 19 20 -21 22 23 24 -25 26 -27 28 29 -30 31 32 33 34 35 36 -37 38 0
1 2 3 4 5 6 7 8 -9 -10 11 12 -13 14 15 -16 17 18 -19 20 -21 22 23 24 -25 26 27 28 29 30 31 32 33 34 35 36 -37 38 0
1 2 3 4 5 6 -7 8 9 10 11 -12 13 14 15 16 17 -18 -19 -20 21 22 23 24 25 -26 27 28 -29 30 -31 32 -33 34 35 36 37 -38 0
1 2 3 4 5 6 7 8 9 10 11 12 13 14 15 -16 17 18 19 20 21 -22 -23 24 -25 -26 27 28 29 30 -31 -32 33 -34 35 36 37 38 0
1 2 3 4 5 6 -7 8 9 10 -11 12 13 14 15 -16 17 18 19 -20 -21 22 -23 24 25 -26 27 28 29 -30 31 32 33 34 35 36 37 38 0
1 2 3 4 5 6 7 8 9 10 11 -12 13 14 15 -16 17 18 19 20 21 -22 -23 24 -25 -26 27 28 29 30 -31 32 -33 34 35 36 37 -38 0
1 2 3 4 5 6 -7 8 9 10 -11 12 13 14 15 16 -17 18 19 20 21 22 23 24 -25 -26 27 28 29 30 -31 32 33 -34 35 36 -37 38 0
1 2 3 4 5 6 -7 8 9 10 -11 12 13 14 15 -16 17 18 19 20 21 22 -23 24 -25 -26 -27 28 29 30 -31 32 33 34 35 36 37 38 0
1 2 3 4 5 6 -7 8 9 10 -11 12 13 14 15 16 -17 18 19 20 21 22 23 -24 -25 26 27 -28 -29 30 31 -32 33 34 35 36 -37 38 0
1 2 3 4 5 6 -7 8 9 10 11 -12 13 14 15 16 17 18 19 20 21 22 23 24 25 -26 -27 28 -29 30 -31 -32 33 34 35 -36 -37 38 0
1 2 3 4 5 6 7 8 9 10 -11 12 13 14 15 -16 -17 18 19 20 21 22 23 24 -25 -26 -27 28 29 30 -31 32 -33 34 35 36 37 -38 0
1 2 3 4 5 6 7 8 9 10 -11 12 13 14 15 -16 -17 18 19 20 21 22 23 24 -25 -26 -27 28 29 30 -31 32 33 34 -35 36 37 38 0
1 2 3 4 5 6 7 8 9 10 11 12 13 14 -15 -16 17 18 19 20 21 -22 23 24 -25 26 27 28 29 -30 -31 -32 33 34 35 36 -37 38 0
1 2 -3 -4 5 -6 7 8 9 10 11 -12 13 14 15 16 17 18 19 20 21 22 23 -24 -25 26 27 28 -29 30 31 -32 33 34 -35 36 37 38 0
1 2 3 4 5 6 -7 8 9 10 -11 12 13 14 15 -16 17 18 19 20 21 22 -23 -24 -25 26 27 28 -29 30 31 -32 33 34 -35 36 37 38 0
1 2 3 4 5 6 7 8 9 10 11 -12 13 14 15 -16 17 18 19 20 21 22 -23 24 -25 -26 -27 28 29 30 -31 32 33 34 -35 36 37 38 0
1 2 3 4 5 6 7 8 9 10 11 12 13 14 15 -16 17 18 19 20 21 -22 -23 24 -25 -26 27 28 29 30 -31 32 -33 34 35 -36 -37 38 0
1 2 3 4 5 6 -7 8 9 10 -11 12 13 14 15 16 -17 18 19 20 21 22 23 24 -25 26 27 28 29 -30 31 -32 -33 34 -35 36 37 -38 0
1 2 -3 -4 5 -6 7 8 9 10 11 12 13 14 15 16 17 18 19 20 21 22 23 24 25 -26 -27 28 -29 30 -31 32 -33 34 35 36 37 -38 0
1 2 3 4 5 6 -7 8 9 10 -11 12 13 14 15 16 -17 18 19 20 21 22 23 24 25 26 27 -28 29 30 -31 32 33 -34 -35 36 37 -38 0
1 2 -3 -4 5 -6 7 8 9 10 11 12 13 14 15 16 17 18 19 20 21 22 23 24 25 26 27 -28 29 30 -31 32 33 -34 -35 36 37 -38 0
1 2 3 4 5 6 7 8 -9 -10 11 12 -13 14 15 -16 17 18 -19 20 -21 22 23 24 -25 26 27 28 29 30 31 32 33 34 35 36 37 -38 0
1 -2 -3 4 5 -6 7 8 -9 -10 11 12 -13 14 15 16 17 18 -19 20 21 22 23 24 25 26 27 28 29 30 31 32 33 34 35 36 37 -38 0
1 -2 -3 4 5 -6 7 8 9 10 11 -12 13 14 15 16 17 18 19 20 21 22 23 24 25 26 27 28 29 30 -31 32 33 -34 -35 36 37 -38 0
1 2 3 4 5 6 7 8 9 10 11 12 -13 -14 -15 16 17 18 -19 20 21 -22 23 24 25 26 -27 28 29 30 31 -32 33 34 35 36 37 -38 0
1 2 3 4 5 6 7 8 9 10 -11 12 -13 -14 -15 -16 17 -18 19 20 21 22 23 24 -25 26 27 28 -29 30 31 32 33 34 35 36 37 -38 0
1 2 -3 -4 5 -6 7 8 9 10 11 12 13 14 -15 16 17 18 19 -20 21 -22 23 24 25 -26 27 28 29 30 31 32 33 34 35 36 37 -38 0
1 2 3 4 5 6 7 -8 9 -10 -11 12 13 14 -15 16 17 -18 -19 20 -21 22 23 24 -25 26 27 28 29 30 31 32 33 34 35 36 37 38 0
1 2 3 4 5 6 7 8 9 10 11 -12 13 14 15 -16 17 18 19 20 21 -22 -23 24 -25 -26 27 28 29 30 -31 32 -33 34 35 36 37 38 0
1 2 3 4 5 6 -7 8 9 10 11 -12 13 14 15 16 17 18 19 -20 21 22 23 -24 25 -26 27 -28 29 -30 31 -32 33 34 35 36 37 38 0
1 2 -3 -4 5 -6 7 8 9 10 11 12 13 14 15 16 17 -18 -19 -20 21 22 23 24 25 -26 27 28 29 -30 31 32 33 34 35 36 37 38 0
1 2 3 4 5 6 7 8 9 10 11 12 -13 -14 -15 16 17 18 -19 20 21 -22 23 24 25 -26 -27 28 29 30 31 32 33 34 35 36 37 -38 0
1 2 -3 -4 5 -6 7 8 9 10 11 -12 13 14 15 16 17 18 19 20 21 22 -23 24 25 26 -27 28 29 30 31 -32 33 34 35 36 37 -38 0
1 2 3 4 5 6 7 8 9 10 11 12 -13 -14 -15 16 17 -18 19 20 21 -22 23 -24 -25 -26 27 28 29 30 31 32 33 34 35 36 37 -38 0
1 2 3 4 5 6 -7 8 9 10 -11 12 13 14 15 16 -17 18 19 20 21 22 23 24 25 -26 27 28 -29 30 -31 32 33 -34 35 36 -37 38 0
1 2 -3 -4 5 -6 7 8 9 10 11 -12 13 14 15 16 17 18 19 20 21 22 23 24 25 -26 27 28 -29 30 -31 32 -33 34 35 36 37 -38 0
1 2 -3 -4 5 -6 7 8 9 10 11 -12 13 14 15 16 17 18 19 20 21 22 23 24 25 -26 27 28 -29 30 -31 32 33 -34 35 36 37 38 0
1 2 -3 -4 5 -6 7 8 9 10 11 12 13 14 15 16 17 18 19 20 21 22 23 -24 -25 26 27 -28 -29 30 31 -32 33 34 35 36 37 -38 0
1 -2 -3 4 5 -6 7 8 9 10 11 -12 13 14 15 16 17 18 19 20 21 22 23 -24 -25 26 27 28 29 -30 31 32 -33 34 35 36 37 -38 0
1 2 3 4 5 6 7 8 9 10 11 12 13 14 15 16 -17 18 19 20 21 -22 23 24 -25 -26 -27 28 29 30 31 32 33 -34 -35 36 37 -38 0
1 2 3 4 5 6 -7 8 9 10 11 -12 13 14 15 16 17 18 19 20 -21 -22 -23 24 -25 26 -27 28 29 30 31 32 33 34 35 36 37 -38 0
1 2 3 4 5 6 7 -8 9 -10 -11 12 13 -14 15 -16 17 18 -19 20 21 22 -23 24 25 26 27 28 29 30 31 32 33 34 35 36 37 -38 0
1 2 3 4 5 6 7 8 9 10 11 -12 13 14 15 -16 17 18 19 20 21 22 -23 24 25 26 27 28 29 -30 -31 -32 33 34 35 -36 -37 38 0
1 2 -3 -4 5 -6 7 8 -9 -10 11 12 -13 14 15 16 17 18 -19 20 21 22 23 24 25 26 27 28 29 30 31 32 33 34 35 36 37 -38 0
1 2 -3 -4 5 -6 7 8 9 10 11 12 13 14 15 16 17 18 19 20 21 22 -23 -24 -25 26 27 -28 -29 30 31 32 33 34 35 36 37 -38 0
1 -2 -3 4 5 -6 7 8 9 10 11 -12 13 14 15 16 17 18 19 20 21 22 23 -24 -25 26 27 28 29 -30 31 32 33 34 35 36 -37 38 0
1 -2 -3 4 5 -6 7 8 9 10 11 -12 13 14 15 16 17 18 19 20 21 22 -23 24 25 26 -27 28 29 30 31 -32 33 34 35 36 37 -38 0
1 2 3 4 5 6 7 8 9 10 11 12 13 14 15 16 17 18 19 -20 -21 22 -23 -24 25 -26 27 -28 29 -30 31 32 -33 34 35 36 37 -38 0
1 2 3 4 5 6 -7 8 9 10 11 -12 13 14 15 16 17 18 19 -20 -21 22 23 -24 25 26 -27 28 -29 30 -31 32 -33 34 35 36 37 38 0
1 2 -3 -4 5 -6 7 8 9 10 11 12 13 14 15 16 17 18 19 20 21 22 23 24 25 26 27 28 -29 -30 31 -32 -33 34 -35 36 37 -38 0
1 2 -3 -4 5 -6 7 8 9 10 11 -12 13 14 15 16 17 18 19 20 21 22 23 24 25 26 27 28 29 30 -31 32 33 -34 -35 36 37 -38 0
1 2 3 4 5 6 7 8 -9 -10 11 12 -13 14 15 -16 17 -18 19 20 -21 -22 23 24 25 26 27 28 29 30 31 32 33 34 35 36 -37 38 0
1 2 3 4 5 6 7 8 -9 -10 11 12 -13 14 15 -16 17 18 -19 20 21 -22 23 24 25 26 27 -28 29 30 31 32 33 34 35 36 37 -38 0
1 -2 -3 4 5 -6 7 8 9 10 11 -12 13 14 15 16 17 18 19 20 21 22 23 24 25 -26 27 28 -29 30 -31 32 33 -34 35 36 37 38 0
1 2 3 4 5 6 -7 8 9 10 11 -12 13 14 15 16 17 18 19 20 21 22 23 24 -25 -26 27 28 29 30 -31 32 33 -34 -35 36 37 -38 0
1 2 3 4 5 6 -7 8 9 10 -11 12 13 14 15 16 -17 18 19 -20 21 22 23 -24 25 -26 27 28 29 -30 31 32 33 34 35 36 -37 38 0
1 2 3 4 5 6 7 8 9 10 11 12 13 14 15 16 -17 18 19 20 21 -22 23 24 25 -26 27 -28 -29 30 -31 32 33 -34 35 36 -37 38 0
1 2 3 4 5 6 7 8 9 10 11 12 13 14 -15 -16 17 18 19 20 -21 22 23 24 25 26 -27 28 29 -30 -31 32 33 34 35 -36 -37 38 0
1 2 3 4 5 6 7 8 9 10 11 -12 13 14 15 16 -17 18 19 20 21 22 23 24 -25 -26 27 28 29 30 -31 32 33 -34 -35 36 37 -38 0
1 2 3 4 5 6 7 8 9 10 11 12 13 14 15 16 17 18 19 20 21 22 -23 -24 -25 26 -27 28 -29 30 -31 -32 33 34 35 -36 -37 38 0
1 -2 -3 4 5 -6 7 8 9 10 11 -12 13 14 15 16 17 18 19 20 21 22 23 24 25 -26 27 28 -29 30 -31 32 -33 34 35 36 37 -38 0
1 2 3 4 5 6 -7 8 9 10 -11 12 13 14 15 16 -17 -18 -19 -20 21 22 23 24 25 -26 27 28 29 -30 31 32 33 34 35 36 37 38 0
1 -2 -3 4 5 -6 7 8 9 10 11 -12 13 14 15 16 17 18 19 20 21 22 23 24 -25 -26 27 28 29 30 -31 32 -33 34 35 36 37 38 0
1 2 3 4 5 6 -7 8 9 10 -11 12 13 14 15 16 -17 -18 -19 -20 21 22 23 24 25 -26 27 28 -29 30 31 32 33 34 35 36 37 -38 0
1 2 -3 -4 5 -6 7 8 9 10 11 12 13 14 15 16 17 18 19 20 -21 -22 23 24 -25 26 -27 28 29 30 31 32 33 34 35 36 37 -38 0
1 2 -3 -4 5 -6 7 8 9 10 11 12 13 14 15 16 17 18 19 -20 21 22 23 -24 25 -26 27 28 29 -30 31 32 33 34 35 36 -37 38 0
1 2 3 4 5 6 -7 8 9 10 -11 12 13 14 15 -16 -17 18 19 20 21 22 23 24 25 26 -27 -28 29 30 -31 32 33 34 35 36 37 -38 0
1 2 -3 -4 5 -6 7 8 9 10 11 12 13 14 15 16 17 18 19 20 21 22 23 24 25 -26 27 28 -29 30 -31 32 33 -34 35 36 -37 38 0
1 2 -3 -4 5 -6 7 8 9 10 11 12 13 14 15 16 17 18 19 20 -21 -22 23 24 25 -26 -27 28 29 30 31 32 33 34 35 36 37 -38 0
1 2 -3 -4 5 -6 7 8 9 10 11 -12 13 14 15 16 17 18 19 20 21 22 23 -24 -25 26 27 28 29 -30 31 32 -33 34 35 36 37 -38 0
1 -2 -3 4 5 -6 7 8 9 10 11 -12 13 14 15 16 17 18 19 20 21 22 23 24 -25 26 27 28 29 -30 31 32 33 -34 35 -36 37 38 0
1 2 3 4 5 6 7 8 9 10 11 -12 13 14 15 16 -17 -18 -19 -20 21 22 23 24 25 -26 27 28 -29 30 -31 32 -33 34 35 36 37 38 0
1 2 -3 -4 5 -6 7 8 9 10 11 -12 13 14 15 16 17 18 19 -20 21 22 23 -24 25 -26 27 28 29 -30 31 32 33 34 35 36 37 38 0
1 2 -3 -4 5 -6 7 8 9 10 11 -12 13 14 15 16 17 18 19 20 21 22 23 24 -25 -26 27 28 29 -30 31 32 33 34 35 36 37 -38 0
1 2 3 4 5 6 7 8 9 10 11 12 13 14 -15 16 17 -18 -19 -20 -21 22 23 24 25 26 27 28 -29 -30 31 32 33 -34 35 -36 37 38 0
1 2 -3 -4 5 -6 7 8 9 10 11 -12 13 14 15 16 17 18 19 20 21 22 23 24 -25 -26 27 28 29 30 -31 32 -33 34 35 36 37 38 0
1 -2 -3 4 5 -6 7 8 9 10 11 -12 13 14 15 16 17 18 19 -20 21 22 23 -24 25 -26 27 28 29 -30 31 32 33 34 35 36 37 38 0
1 2 -3 -4 5 -6 7 8 9 10 11 -12 13 14 15 16 17 18 19 -20 21 22 23 -24 25 -26 27 28 -29 30 31 32 33 34 35 36 37 -38 0
1 2 3 4 5 6 -7 8 9 10 11 -12 13 14 15 16 17 -18 -19 -20 21 22 23 24 25 -26 27 28 29 -30 31 32 33 34 35 36 -37 38 0
1 2 3 4 5 6 7 8 9 10 11 12 13 14 -15 -16 17 18 19 20 21 -22 23 24 25 -26 27 28 -29 30 -31 -32 33 -34 35 36 37 38 0
1 2 -3 -4 5 -6 7 8 9 10 11 12 13 14 15 16 17 18 19 20 -21 -22 23 24 25 26 -27 28 29 -30 31 32 33 34 35 36 37 -38 0
1 2 -3 -4 5 -6 7 8 9 10 11 -12 13 14 15 16 17 18 19 20 21 22 23 24 -25 26 27 28 29 -30 31 32 33 -34 35 -36 37 38 0
1 2 3 4 5 6 -7 8 9 10 -11 12 13 14 -15 16 -17 18 19 20 -21 22 23 24 -25 -26 27 28 29 30 31 32 33 34 35 36 37 -38 0
1 2 3 4 5 6 7 8 9 10 11 12 13 14 -15 -16 17 18 19 -20 21 -22 23 24 -25 26 27 -28 -29 30 31 32 33 34 35 36 -37 38 0
1 2 3 4 5 6 7 8 9 10 11 12 13 14 -15 -16 17 18 19 20 -21 22 23 24 25 26 -27 -28 29 30 31 32 33 -34 -35 36 37 -38 0
1 2 3 4 5 6 7 8 9 10 11 12 13 14 15 -16 17 18 19 20 21 -22 -23 24 25 26 27 28 -29 -30 -31 -32 33 34 35 36 -37 38 0
1 2 3 4 5 6 -7 8 9 10 11 -12 13 14 15 16 17 -18 -19 -20 21 22 23 24 25 -26 27 28 -29 30 -31 32 -33 34 35 36 37 38 0
1 2 -3 -4 5 -6 7 8 9 10 11 12 13 14 15 16 17 18 19 -20 -21 22 23 -24 25 -26 27 28 -29 30 31 32 33 34 35 36 37 -38 0
1 2 3 4 5 6 7 8 9 10 11 12 13 14 15 16 17 -18 -19 -20 21 22 23 24 25 -26 27 28 -29 30 -31 32 33 -34 -35 36 37 -38 0
1 2 -3 -4 5 -6 7 8 9 10 11 -12 13 14 15 16 17 18 19 20 21 22 23 -24 -25 26 27 28 29 -30 31 32 33 34 35 36 -37 38 0
1 2 -3 -4 5 -6 7 8 9 10 11 12 13 14 15 16 17 18 19 20 -21 22 23 24 -25 26 -27 28 29 -30 31 32 33 34 35 36 37 -38 0
1 -2 -3 4 5 -6 7 8 9 10 11 -12 13 14 15 16 17 18 19 20 21 22 23 24 -25 -26 27 28 29 -30 31 32 33 34 35 36 37 -38 0
1 2 3 4 5 6 -7 8 9 10 -11 12 13 14 15 -16 17 18 19 20 21 22 -23 24 -25 26 27 28 29 -30 31 32 33 -34 35 -36 37 38 0
1 2 3 4 5 6 7 8 9 10 11 12 13 14 15 16 -17 18 19 20 21 -22 23 24 25 -26 27 -28 29 -30 31 32 33 -34 -35 36 37 -38 0
1 -2 -3 4 5 -6 7 8 9 10 11 -12 13 14 15 16 17 18 19 20 21 22 23 -24 -25 26 27 28 29 -30 31 32 33 -34 35 36 37 38 0
1 2 3 4 5 6 7 8 -9 -10 11 12 13 -14 15 -16 17 18 19 -20 21 -22 23 24 25 -26 27 28 29 30 31 32 33 34 35 36 37 -38 0
1 2 -3 -4 5 -6 7 8 9 10 11 12 13 14 15 16 17 -18 -19 -20 21 22 23 24 25 -26 27 28 -29 30 31 32 33 34 35 36 37 -38 0
1 2 3 4 5 6 7 8 9 10 -11 12 13 14 15 -16 -17 18 19 20 21 22 23 24 25 26 -27 -28 29 -30 31 32 33 -34 35 -36 37 38 0
1 -2 -3 4 5 -6 7 8 9 10 11 -12 13 14 15 16 17 18 19 -20 21 22 23 -24 25 -26 27 28 -29 30 31 32 33 34 35 36 37 -38 0
1 2 3 4 5 6 7 8 -9 -10 11 12 13 -14 15 16 17 18 19 -20 21 -22 23 24 25 -26 -27 28 29 30 31 32 33 34 35 36 37 -38 0
1 2 -3 -4 5 -6 7 8 9 10 11 -12 13 14 15 16 17 18 19 20 21 22 23 -24 -25 26 27 28 29 -30 31 32 33 -34 35 36 37 38 0
1 2 3 4 5 6 7 8 9 10 11 12 13 14 -15 -16 17 18 19 -20 21 -22 23 24 -25 26 27 28 29 -30 31 32 33 -34 35 -36 37 38 0
1 2 3 4 5 6 7 8 9 10 11 12 13 14 15 16 17 18 19 -20 21 22 23 -24 25 -26 27 -28 29 -30 31 -32 -33 34 35 -36 -37 38 0
1 2 3 4 5 6 7 8 9 10 11 12 13 14 15 16 17 18 19 -20 -21 22 23 -24 25 -26 27 28 29 -30 31 -32 -33 34 -35 36 37 -38 0
1 2 3 4 5 6 7 8 9 10 -11 12 13 14 15 -16 -17 18 19 20 21 22 23 24 -25 -26 -27 28 29 30 -31 32 33 34 35 36 37 -38 0
1 2 3 4 5 6 7 8 9 10 11 -12 13 14 15 16 -17 -18 -19 -20 21 22 23 24 25 -26 27 28 29 -30 31 32 33 34 35 36 -37 38 0
1 2 3 4 5 6 -7 8 9 10 -11 12 13 14 15 -16 17 18 19 20 21 22 -23 -24 -25 26 27 28 29 -30 31 32 33 34 35 36 -37 38 0
1 2 3 4 5 6 7 8 9 10 -11 12 13 14 15 -16 -17 18 19 20 21 22 23 24 -25 -26 -27 28 29 30 -31 32 -33 34 35 36 37 38 0
1 2 3 4 5 6 -7 8 9 10 11 -12 13 14 15 16 17 18 19 20 21 22 23 -24 -25 26 27 28 29 -30 31 -32 -33 34 -35 36 37 -38 0
1 2 3 4 5 6 -7 8 9 10 -11 12 13 14 15 16 -17 18 19 20 21 22 23 -24 -25 26 27 -28 -29 30 31 -32 33 34 35 36 37 -38 0
1 2 3 4 5 6 -7 8 9 10 -11 12 13 14 15 16 -17 18 19 20 21 22 23 24 25 26 27 28 -29 -30 31 -32 -33 34 -35 36 37 -38 0
1 2 3 4 5 6 7 8 9 10 11 12 13 14 15 16 17 18 19 20 21 22 -23 -24 -25 26 -27 28 -29 30 -31 32 33 -34 -35 36 37 -38 0
1 2 3 4 5 6 7 8 9 10 11 12 13 14 -15 -16 17 18 19 20 21 -22 23 24 25 -26 27 28 29 -30 -31 32 33 34 35 -36 -37 38 0
1 2 3 4 5 6 -7 8 9 10 -11 12 13 14 15 -16 17 18 19 20 21 22 -23 -24 -25 26 27 28 29 -30 31 32 -33 34 35 36 37 -38 0
1 2 3 4 5 6 -7 8 9 10 -11 12 13 14 15 -16 17 18 19 20 21 22 -23 -24 -25 26 27 28 29 -30 31 32 33 -34 35 36 37 38 0
1 2 3 4 5 6 7 8 9 10 11 12 13 14 15 16 17 18 19 20 21 -22 23 24 -25 -26 -27 -28 29 30 31 32 33 -34 -35 36 37 -38 0
1 2 3 4 5 6 7 8 9 10 11 -12 13 14 15 -16 17 18 19 20 21 22 -23 24 -25 -26 -27 28 29 30 -31 32 -33 34 35 36 37 38 0
1 2 3 4 5 6 -7 8 9 10 11 -12 13 14 15 16 17 18 19 20 21 22 23 24 -25 -26 27 -28 29 -30 31 -32 33 34 35 36 37 -38 0
1 2 3 4 5 6 7 8 9 10 11 12 13 14 15 16 17 18 19 -20 -21 22 23 24 -25 26 -27 28 29 30 -31 32 33 -34 -35 36 37 -38 0
1 2 3 4 5 6 7 8 9 10 11 -12 13 14 15 16 -17 18 19 20 21 22 23 -24 -25 26 27 28 29 -30 31 -32 -33 34 -35 36 37 -38 0
1 2 3 4 5 6 7 8 9 10 11 12 13 14 -15 -16 17 18 19 -20 21 -22 23 -24 25 26 27 28 -29 -30 31 32 33 -34 35 -36 37 38 0
1 2 3 4 5 6 7 8 9 10 11 -12 13 14 15 -16 17 18 19 20 21 22 -23 24 -25 -26 -27 28 29 30 -31 32 33 34 35 36 37 -38 0
1 2 -3 -4 5 -6 7 8 -9 -10 11 12 -13 14 15 16 17 18 -19 20 21 22 23 24 25 26 27 28 29 30 31 32 33 34 35 36 37 38 0
1 2 3 4 5 6 7 8 -9 -10 11 12 13 -14 15 -16 17 18 19 -20 21 -22 23 24 25 -26 27 28 29 30 31 32 33 34 35 36 37 38 0
1 2 3 4 5 6 7 8 9 10 11 12 13 14 -15 16 17 -18 -19 -20 -21 22 23 24 25 26 27 28 -29 -30 31 32 -33 34 35 36 37 -38 0
1 2 3 4 5 6 -7 8 9 10 11 -12 13 14 15 16 17 -18 -19 -20 21 22 23 24 25 -26 27 28 -29 30 31 32 33 34 35 36 -37 38 0
1 2 3 4 5 6 7 -8 9 -10 -11 12 13 -14 15 -16 17 18 -19 20 21 22 23 24 25 26 27 28 29 30 31 32 33 34 35 36 -37 38 0
1 2 3 4 5 6 -7 8 9 10 -11 12 13 14 15 16 -17 18 19 20 21 22 23 24 25 26 27 -28 29 30 -31 32 33 -34 35 36 -37 38 0
1 2 3 4 5 6 -7 8 9 10 -11 12 13 14 15 16 -17 18 19 -20 21 22 23 -24 25 -26 27 28 -29 30 31 32 33 34 35 36 -37 38 0
1 2 3 4 5 6 7 8 9 10 11 -12 13 14 15 -16 17 18 19 20 -21 22 -23 24 25 26 -27 28 29 30 31 -32 33 34 35 36 -37 38 0
1 2 3 4 5 6 7 8 9 10 11 12 13 14 15 16 17 18 19 -20 -21 22 -23 -24 25 -26 27 -28 -29 30 31 32 33 34 35 36 -37 38 0
1 -2 -3 4 5 -6 7 8 9 10 11 -12 13 14 15 16 17 18 19 20 21 22 -23 24 25 26 27 -28 29 30 31 32 33 34 35 36 -37 38 0
1 2 3 4 5 6 7 8 -9 -10 11 12 13 -14 15 16 17 18 19 -20 21 -22 23 24 25 -26 -27 28 29 30 31 32 33 34 35 36 37 38 0
1 2 3 4 5 6 -7 8 9 10 11 -12 13 14 15 16 17 18 19 20 21 22 -23 -24 -25 26 27 -28 -29 30 31 32 33 34 35 36 -37 38 0
1 -2 -3 4 5 -6 7 8 -9 -10 11 12 -13 14 15 16 17 18 -19 20 21 22 23 24 25 26 27 28 29 30 31 32 33 34 35 36 37 38 0
1 2 3 4 5 6 7 8 9 10 -11 12 -13 -14 -15 -16 17 -18 19 20 21 22 23 24 -25 26 27 28 -29 30 31 32 33 34 35 36 37 38 0
1 -2 -3 4 5 -6 7 8 9 10 11 -12 13 14 15 16 17 18 19 20 21 22 23 24 25 26 27 -28 29 30 -31 32 33 -34 35 36 37 38 0
1 2 3 4 5 6 -7 8 9 10 -11 12 13 14 15 -16 17 18 19 20 21 22 -23 24 -25 26 27 28 29 -30 31 32 -33 34 35 36 37 -38 0
1 2 3 4 5 6 7 8 9 10 -11 12 13 14 15 -16 -17 18 19 20 21 22 23 24 -25 -26 -27 28 29 30 -31 32 33 34 35 36 37 38 0
1 -2 -3 4 5 -6 7 8 9 10 11 -12 13 14 15 16 17 18 19 20 21 22 23 24 -25 26 27 28 29 -30 31 32 33 34 35 36 -37 38 0
1 2 -3 -4 5 -6 7 8 9 10 11 12 13 14 15 16 17 18 19 20 21 22 23 24 -25 -26 27 28 29 30 -31 32 -33 34 35 36 37 -38 0
1 2 3 4 5 6 -7 8 9 10 -11 12 13 14 15 16 -17 -18 -19 -20 21 22 23 24 25 -26 27 28 -29 30 31 32 33 34 35 36 37 38 0
1 2 -3 -4 5 -6 7 8 9 10 11 -12 13 14 15 16 17 18 19 20 21 22 -23 24 25 26 27 -28 29 30 31 32 33 34 35 36 -37 38 0
1 -2 -3 4 5 -6 7 8 9 10 11 -12 13 14 15 16 17 18 19 20 21 22 23 24 25 26 27 28 29 30 31 -32 33 -34 35 36 -37 38 0
1 2 3 4 5 6 7 8 9 10 11 12 13 14 -15 -16 17 18 19 20 -21 -22 23 24 25 26 27 28 29 -30 -31 32 33 -34 35 36 37 38 0
1 -2 -3 4 5 -6 7 8 9 10 11 -12 13 14 15 16 17 18 19 20 21 22 23 24 25 -26 27 28 -29 30 -31 32 -33 34 35 36 37 38 0
1 2 3 4 5 6 -7 8 9 10 -11 12 13 14 -15 16 -17 18 19 20 -21 22 23 24 -25 -26 27 28 29 30 31 32 33 34 35 36 37 38 0
1 2 3 4 5 6 7 8 9 10 11 12 13 14 15 16 17 18 19 -20 -21 22 -23 -24 25 -26 27 -28 29 -30 31 32 -33 34 35 36 37 38 0
1 2 3 4 5 6 -7 8 9 10 11 -12 13 14 15 16 17 18 19 -20 -21 22 23 -24 25 -26 27 28 -29 30 31 32 33 34 35 36 -37 38 0
1 2 3 4 5 6 7 8 9 10 11 -12 13 14 15 -16 17 18 19 20 21 -22 -23 24 25 26 27 28 29 30 -31 -32 33 -34 35 36 37 38 0
1 2 3 4 5 6 7 -8 9 -10 -11 12 13 -14 15 -16 17 18 -19 20 21 22 -23 24 25 26 27 28 29 30 31 32 33 34 35 36 37 38 0
1 2 -3 -4 5 -6 7 8 9 10 11 -12 13 14 15 16 17 18 19 20 21 22 23 -24 -25 26 27 28 -29 30 31 32 33 34 35 36 -37 38 0
1 2 3 4 5 6 7 8 9 10 11 12 13 14 -15 16 17 -18 -19 -20 -21 22 23 24 25 26 27 28 -29 -30 31 32 33 -34 35 36 37 38 0
1 -2 -3 4 5 -6 7 8 9 10 11 -12 13 14 15 16 17 18 19 20 21 22 23 24 25 26 27 -28 29 30 -31 32 33 34 -35 36 37 38 0
1 -2 -3 4 5 -6 7 8 9 10 11 -12 13 14 15 16 17 18 19 20 21 22 23 24 25 26 27 -28 29 30 31 -32 33 34 35 36 -37 38 0
1 2 3 4 5 6 -7 8 9 10 -11 12 13 14 15 -16 -17 18 19 20 21 22 23 24 25 26 -27 -28 29 30 -31 32 33 34 35 36 37 38 0
1 2 3 4 5 6 -7 8 9 10 11 -12 13 14 15 16 17 -18 -19 -20 21 22 23 24 25 -26 27 28 29 -30 31 32 33 34 35 36 37 -38 0
1 2 3 4 5 6 7 8 9 10 11 12 13 14 15 16 17 18 19 -20 -21 22 -23 24 25 -26 27 -28 29 -30 31 32 -33 34 35 36 37 -38 0
1 2 3 4 5 6 -7 8 9 10 -11 12 13 14 15 16 -17 18 19 -20 21 22 23 -24 25 -26 27 28 29 -30 31 32 33 34 35 36 37 -38 0
1 -2 -3 4 5 -6 7 8 9 10 11 -12 13 14 15 16 17 18 19 20 21 22 23 24 25 26 27 28 -29 -30 31 32 33 -34 35 -36 37 38 0
1 -2 -3 4 5 -6 7 8 9 10 11 -12 13 14 15 16 17 18 19 20 21 22 -23 24 25 26 -27 28 29 30 31 -32 33 34 35 36 37 38 0
1 2 3 4 5 6 7 8 9 10 11 12 -13 -14 -15 16 17 18 -19 20 21 -22 23 24 25 -26 -27 28 29 30 31 32 33 34 35 36 37 38 0
1 2 3 4 5 6 -7 8 9 10 -11 12 13 14 15 16 -17 18 19 20 21 22 23 -24 -25 26 27 28 29 -30 31 32 33 -34 35 -36 37 38 0
1 2 -3 -4 5 -6 7 8 9 10 11 -12 13 14 15 16 17 18 19 20 21 22 -23 24 25 26 -27 28 29 30 31 -32 33 34 35 36 37 38 0
1 2 -3 -4 5 -6 7 8 9 10 11 12 13 14 15 16 17 18 19 20 -21 22 23 24 -25 26 -27 28 29 -30 31 32 33 34 35 36 37 38 0
1 2 3 4 5 6 7 8 9 10 11 -12 13 14 15 16 -17 18 19 20 21 22 23 24 -25 -26 27 28 29 30 -31 32 33 -34 35 36 -37 38 0
1 2 3 4 5 6 7 8 9 10 11 12 -13 -14 -15 16 17 -18 19 20 21 -22 23 -24 -25 -26 27 28 29 30 31 32 33 34 35 36 37 38 0
1 -2 -3 4 5 -6 7 8 9 10 11 -12 13 14 15 16 17 18 19 20 21 22 23 -24 -25 26 27 28 -29 30 31 32 33 34 35 36 -37 38 0
1 2 -3 -4 5 -6 7 8 9 10 11 -12 13 14 15 16 17 18 19 20 21 22 23 24 25 26 27 -28 29 30 31 -32 33 34 35 36 -37 38 0
1 2 3 4 5 6 -7 8 9 10 11 -12 13 14 15 16 17 18 19 20 21 22 -23 24 25 26 27 -28 29 30 31 32 -33 -34 -35 36 37 -38 0
1 2 -3 -4 5 -6 7 8 9 10 11 12 13 14 15 16 17 -18 -19 -20 21 22 23 24 25 -26 27 28 -29 30 31 32 33 34 35 36 37 38 0
1 2 3 4 5 6 7 8 9 10 11 12 13 14 15 16 17 -18 -19 -20 21 22 23 24 25 -26 27 28 -29 30 -31 32 33 -34 35 36 -37 38 0
1 2 -3 -4 5 -6 7 8 9 10 11 12 13 14 15 16 17 18 19 20 21 22 -23 24 25 26 -27 28 29 30 -31 32 33 34 -35 36 37 38 0
1 2 3 4 5 6 -7 8 9 10 -11 12 13 14 15 -16 17 18 19 20 21 22 -23 -24 -25 26 27 28 -29 30 31 32 33 34 35 36 -37 38 0
1 2 3 4 5 6 7 8 -9 -10 11 12 -13 14 15 -16 17 18 -19 20 -21 22 23 24 -25 26 27 28 29 30 31 32 33 34 35 36 37 38 0
1 2 3 4 5 6 7 8 9 10 11 -12 13 14 15 -16 17 18 19 20 21 -22 23 24 25 26 27 -28 29 30 31 32 -33 -34 -35 36 37 -38 0
1 2 -3 -4 5 -6 7 8 9 10 11 12 13 14 -15 16 17 18 19 -20 21 -22 23 24 25 -26 27 28 29 30 31 32 33 34 35 36 37 38 0
1 2 3 4 5 6 -7 8 9 10 -11 12 13 14 -15 16 -17 18 19 20 21 -22 23 24 25 26 27 -28 29 30 31 32 33 34 35 36 -37 38 0
1 2 3 4 5 6 7 8 9 10 11 -12 13 14 15 16 -17 18 19 20 21 22 23 24 -25 -26 27 28 29 30 -31 32 -33 34 35 -36 -37 38 0
1 2 3 4 5 6 7 8 9 10 11 -12 13 14 15 -16 17 18 19 20 21 22 -23 24 -25 -26 -27 28 29 30 -31 32 33 34 35 36 37 38 0
1 2 -3 -4 5 -6 7 8 9 10 11 -12 13 14 15 16 17 18 19 -20 21 22 23 -24 25 -26 27 28 -29 30 31 32 33 34 35 36 37 38 0
1 2 3 4 5 6 -7 8 9 10 11 -12 13 14 15 16 17 18 19 20 21 22 23 24 -25 26 27 28 29 -30 31 -32 -33 34 -35 36 37 -38 0
1 2 3 4 5 6 7 8 -9 -10 11 12 -13 14 15 -16 17 -18 19 20 -21 -22 23 24 25 26 27 28 29 30 31 32 33 34 35 36 37 -38 0
1 2 -3 -4 5 -6 7 8 9 10 11 -12 13 14 15 16 17 18 19 20 21 22 23 24 -25 26 27 28 29 -30 31 32 33 34 35 36 -37 38 0
1 2 3 4 5 6 7 8 -9 -10 11 12 -13 14 15 -16 17 18 -19 20 21 -22 23 24 25 26 27 -28 29 30 31 32 33 34 35 36 37 38 0
1 -2 -3 4 5 -6 7 8 9 10 11 -12 13 14 15 16 17 18 19 20 21 22 23 -24 -25 26 27 28 29 -30 31 32 33 34 35 36 37 -38 0
1 2 -3 -4 5 -6 7 8 9 10 11 -12 13 14 15 16 17 18 19 20 21 22 23 -24 -25 26 27 28 29 -30 31 32 -33 34 35 36 37 38 0
1 2 3 4 5 6 7 8 9 10 11 12 -13 -14 -15 16 17 18 -19 20 21 -22 23 24 25 26 -27 28 29 30 31 -32 33 34 35 36 37 38 0
1 2 3 4 5 6 7 8 9 10 11 12 13 14 15 -16 17 18 19 20 21 -22 -23 24 -25 -26 27 28 29 30 -31 32 -33 34 35 36 37 -38 0
1 2 -3 -4 5 -6 7 8 9 10 11 12 13 14 15 16 17 18 19 20 21 22 -23 24 25 26 -27 28 29 30 31 -32 33 34 35 36 -37 38 0
1 2 3 4 5 6 7 8 9 10 11 -12 13 14 15 16 -17 -18 -19 -20 21 22 23 24 25 -26 27 28 29 -30 31 32 33 34 35 36 37 -38 0
1 2 -3 -4 5 -6 7 8 9 10 11 -12 13 14 15 16 17 18 19 20 21 22 23 24 25 26 27 -28 29 30 -31 32 33 -34 35 36 37 38 0
1 2 3 4 5 6 7 8 9 10 11 -12 13 14 15 16 -17 18 19 20 21 22 23 24 25 -26 27 28 -29 30 -31 32 33 -34 -35 36 37 -38 0
1 -2 -3 4 5 -6 7 8 9 10 11 -12 13 14 15 16 17 18 19 20 21 22 23 24 -25 26 27 28 29 -30 31 32 -33 34 35 36 37 -38 0
1 2 -3 -4 5 -6 7 8 9 10 11 12 13 14 15 16 17 18 19 -20 21 22 23 -24 25 -26 27 28 -29 30 31 32 33 34 35 36 -37 38 0
1 2 -3 -4 5 -6 7 8 9 10 11 -12 13 14 15 16 17 18 19 20 21 22 23 24 25 26 27 -28 29 30 -31 32 33 34 -35 36 37 38 0
1 2 3 4 5 6 -7 8 9 10 11 -12 13 14 15 16 17 18 19 -20 21 22 23 -24 25 -26 27 28 -29 30 -31 32 33 -34 35 36 37 38 0
1 -2 -3 4 5 -6 7 8 9 10 11 -12 13 14 15 16 17 18 19 -20 21 22 23 -24 25 -26 27 28 -29 30 31 32 33 34 35 36 37 38 0
1 2 3 4 5 6 7 8 9 10 11 -12 13 14 15 16 -17 -18 -19 -20 21 22 23 24 25 -26 27 28 -29 30 31 32 33 34 35 36 -37 38 0
1 -2 -3 4 5 -6 7 8 9 10 11 -12 13 14 15 16 17 18 19 20 21 22 23 24 25 26 27 28 29 -30 -31 32 33 -34 35 36 37 38 0
1 -2 -3 4 5 -6 7 8 9 10 11 -12 13 14 15 16 17 18 19 20 21 22 23 24 -25 -26 27 28 29 -30 31 32 33 34 35 36 37 38 0
1 2 -3 -4 5 -6 7 8 9 10 11 12 13 14 15 16 17 18 19 -20 -21 22 23 -24 25 -26 27 28 -29 30 31 32 33 34 35 36 37 38 0
1 2 3 4 5 6 7 8 9 10 11 -12 13 14 15 -16 17 18 19 20 21 22 -23 -24 -25 26 27 28 29 -30 31 32 33 -34 35 -36 37 38 0
1 2 3 4 5 6 -7 8 9 10 11 -12 13 14 15 16 17 18 19 20 21 22 23 24 -25 -26 27 28 29 30 -31 32 33 -34 35 36 -37 38 0
1 2 -3 -4 5 -6 7 8 9 10 11 -12 13 14 15 16 17 18 19 20 21 22 23 24 25 -26 27 28 -29 30 -31 32 -33 34 35 36 37 38 0
1 2 -3 -4 5 -6 7 8 9 10 11 -12 13 14 15 16 17 18 19 20 21 22 23 24 25 26 27 28 29 30 31 -32 33 -34 35 36 -37 38 0
1 2 -3 -4 5 -6 7 8 9 10 11 12 13 14 15 16 17 18 19 -20 21 22 23 -24 25 -26 27 28 29 -30 31 32 33 34 35 36 37 -38 0
1 2 3 4 5 6 7 8 9 10 11 -12 13 14 15 16 -17 18 19 -20 21 22 23 -24 25 -26 27 28 -29 30 -31 32 33 -34 35 36 37 38 0
1 2 -3 -4 5 -6 7 8 9 10 11 -12 13 14 15 16 17 18 19 20 21 22 23 24 25 26 27 28 29 -30 -31 32 33 -34 35 36 37 38 0
1 2 3 4 5 6 7 8 9 10 11 12 13 14 -15 -16 17 18 19 -20 21 -22 23 -24 25 -26 27 28 -29 30 31 32 33 34 35 36 -37 38 0
1 2 3 4 5 6 7 8 9 10 11 -12 13 14 15 -16 17 18 19 20 21 22 -23 -24 -25 26 27 28 -29 30 31 -32 33 34 -35 36 37 38 0
1 2 -3 -4 5 -6 7 8 9 10 11 -12 13 14 15 16 17 18 19 20 21 22 23 24 25 26 27 28 -29 -30 31 32 33 -34 35 -36 37 38 0
1 2 -3 -4 5 -6 7 8 9 10 11 -12 13 14 15 16 17 18 19 20 21 22 23 24 -25 26 27 28 29 -30 31 32 -33 34 35 36 37 -38 0
1 2 -3 -4 5 -6 7 8 9 10 11 -12 13 14 15 16 17 18 19 20 21 22 23 -24 -25 26 27 28 29 -30 31 32 33 34 35 36 37 -38 0
1 2 3 4 5 6 7 8 9 10 11 12 13 14 15 16 17 18 19 20 21 -22 23 24 -25 -26 -27 -28 29 30 31 32 -33 -34 35 -36 37 38 0
1 2 3 4 5 6 7 8 9 10 11 12 13 14 15 16 17 -18 -19 -20 21 22 23 24 25 -26 27 -28 29 -30 31 -32 33 34 35 36 37 -38 0
1 2 3 4 5 6 -7 8 9 10 11 -12 13 14 15 16 17 18 19 20 21 22 23 24 25 -26 27 28 -29 30 -31 32 33 -34 -35 36 37 -38 0
1 2 -3 -4 5 -6 7 8 9 10 11 12 13 14 15 16 17 18 19 20 21 22 23 24 25 26 27 -28 29 30 -31 32 33 -34 35 36 -37 38 0
1 2 -3 -4 5 -6 7 8 9 10 11 12 13 14 15 16 17 18 19 20 21 22 23 24 -25 -26 27 28 29 30 -31 32 33 -34 35 36 37 38 0
1 2 -3 -4 5 -6 7 8 9 10 11 12 13 14 15 16 17 18 19 20 21 22 23 24 25 -26 -27 28 -29 30 -31 32 -33 34 35 36 37 38 0
1 2 3 4 5 6 7 8 9 10 11 -12 13 14 15 -16 17 18 19 20 21 22 -23 24 25 26 27 28 29 -30 -31 -32 33 34 35 36 -37 38 0
1 -2 -3 4 5 -6 7 8 9 10 11 -12 13 14 15 16 17 18 19 20 21 22 23 24 -25 26 27 28 29 -30 31 32 33 -34 35 36 37 38 0
1 2 3 4 5 6 -7 8 9 10 -11 12 13 14 15 -16 17 18 19 20 21 22 -23 24 25 26 27 28 -29 -30 31 32 33 -34 35 -36 37 38 0
1 2 -3 -4 5 -6 7 8 9 10 11 12 13 14 15 16 17 18 19 20 21 22 -23 -24 -25 26 27 -28 -29 30 31 32 33 34 35 36 37 38 0
1 2 3 4 5 6 7 8 9 10 11 12 13 14 15 -16 17 18 19 20 21 -22 -23 24 -25 -26 27 28 29 30 -31 32 33 -34 35 36 37 38 0
1 2 3 4 5 6 -7 8 9 10 11 -12 13 14 15 16 17 18 19 20 21 22 23 24 -25 -26 27 28 29 30 -31 32 -33 34 35 -36 -37 38 0
1 -2 -3 4 5 -6 7 8 9 10 11 -12 13 14 15 16 17 18 19 20 21 22 23 -24 -25 26 27 28 29 -30 31 32 -33 34 35 36 37 38 0
1 2 -3 -4 5 -6 7 8 9 10 11 -12 13 14 15 16 17 18 19 20 21 22 23 24 -25 -26 27 28 29 -30 31 32 33 34 35 36 37 38 0
1 2 -3 -4 5 -6 7 8 9 10 11 12 13 14 15 16 17 18 19 20 -21 -22 23 24 -25 26 -27 28 29 30 31 32 33 34 35 36 37 38 0
1 2 3 4 5 6 7 8 9 10 11 12 13 14 15 16 17 18 19 -20 -21 22 23 24 25 -26 27 28 29 -30 31 -32 -33 34 -35 36 37 -38 0
1 2 3 4 5 6 7 8 9 10 11 12 13 14 -15 16 17 18 19 -20 21 -22 23 24 -25 26 -27 28 29 -30 31 32 33 34 35 36 -37 38 0
1 2 3 4 5 6 -7 8 9 10 11 -12 13 14 15 16 17 18 19 20 21 22 23 24 -25 -26 27 -28 29 -30 31 -32 33 34 35 36 37 38 0
1 2 3 4 5 6 7 8 9 10 11 -12 13 14 15 16 -17 18 19 20 21 22 23 24 -25 26 27 28 29 -30 31 -32 -33 34 -35 36 37 -38 0
1 2 3 4 5 6 -7 8 9 10 -11 12 13 14 15 -16 17 18 19 20 21 22 -23 -24 -25 26 27 28 29 -30 31 32 33 34 35 36 37 -38 0
1 2 -3 -4 5 -6 7 8 9 10 11 12 13 14 15 16 17 18 19 20 21 22 23 24 -25 -26 27 28 29 -30 31 32 33 34 35 36 -37 38 0
1 2 -3 -4 5 -6 7 8 9 10 11 12 13 14 15 16 17 18 19 20 -21 -22 23 24 25 -26 -27 28 29 30 31 32 33 34 35 36 37 38 0
1 2 3 4 5 6 -7 8 9 10 -11 12 13 14 15 16 -17 18 19 20 21 22 23 -24 -25 26 27 28 -29 30 31 -32 33 34 -35 36 37 38 0
1 2 3 4 5 6 7 8 9 10 11 12 13 14 -15 -16 17 18 19 -20 21 -22 23 -24 25 26 27 28 -29 -30 31 32 33 -34 35 36 37 38 0
1 2 -3 -4 5 -6 7 8 9 10 11 12 13 14 15 16 17 18 19 20 -21 -22 23 24 25 26 -27 28 29 -30 31 32 33 34 35 36 37 38 0
1 2 3 4 5 6 -7 8 9 10 -11 12 13 14 15 16 -17 18 19 20 21 22 23 24 -25 -26 27 28 29 30 -31 32 33 -34 35 36 37 38 0
1 2 -3 -4 5 -6 7 8 9 10 11 12 13 14 15 16 17 18 19 20 21 22 23 -24 -25 26 27 -28 -29 30 31 -32 33 34 35 36 37 38 0
1 2 -3 -4 5 -6 7 8 9 10 11 -12 13 14 15 16 17 18 19 20 21 22 23 24 -25 26 27 28 29 -30 31 32 33 -34 35 36 37 38 0
1 2 3 4 5 6 7 8 9 10 11 -12 13 14 15 16 -17 18 19 20 21 22 23 24 25 -26 -27 -28 -29 30 31 32 33 -34 35 -36 37 38 0
1 2 3 4 5 6 -7 8 9 10 -11 12 13 14 15 16 -17 18 19 20 21 22 23 -24 -25 26 27 -28 -29 30 31 -32 33 34 35 36 37 38 0
1 2 3 4 5 6 -7 8 9 10 -11 12 13 14 15 -16 17 18 19 20 21 22 -23 24 25 26 27 28 29 30 31 -32 33 -34 35 36 -37 38 0
1 2 -3 -4 5 -6 7 8 9 10 11 12 13 14 15 16 17 18 19 20 21 22 23 -24 -25 26 27 28 29 -30 31 32 33 -34 35 -36 37 38 0
1 2 3 4 5 6 -7 8 9 10 11 -12 13 14 15 16 17 18 19 20 -21 -22 -23 24 -25 26 -27 28 29 30 31 32 33 34 35 36 37 38 0
1 2 3 4 5 6 7 8 9 10 -11 12 13 14 15 -16 -17 18 19 20 21 22 23 24 25 26 -27 -28 29 30 -31 32 33 34 -35 36 37 38 0
1 2 3 4 5 6 -7 8 9 10 -11 12 13 14 15 16 -17 18 19 20 21 22 23 24 -25 -26 27 28 29 -30 31 32 33 34 35 36 -37 38 0
1 2 3 4 5 6 -7 8 9 10 11 -12 13 14 15 16 17 18 19 20 -21 22 23 24 -25 26 -27 28 29 -30 31 32 33 34 35 36 -37 38 0
1 2 -3 -4 5 -6 7 8 9 10 11 12 13 14 15 16 17 18 19 20 21 22 23 -24 -25 26 27 28 -29 30 31 -32 33 34 -35 36 37 38 0
1 2 3 4 5 6 7 8 9 10 -11 12 13 14 15 -16 -17 18 19 20 21 22 23 24 25 26 -27 -28 29 -30 31 32 33 -34 35 36 37 38 0
1 2 3 4 5 6 7 8 9 10 11 -12 13 14 15 16 -17 18 19 20 21 22 23 -24 -25 26 27 -28 -29 30 31 -32 33 34 35 36 -37 38 0
1 2 3 4 5 6 7 8 9 10 11 12 13 14 15 16 -17 18 19 20 21 -22 23 24 -25 -26 -27 28 29 30 31 32 -33 -34 35 -36 37 38 0
1 2 3 4 5 6 7 8 9 10 11 12 13 14 -15 -16 17 18 19 -20 21 -22 23 24 -25 -26 27 28 29 30 31 32 33 34 35 36 -37 38 0
1 2 3 4 5 6 7 8 9 10 11 12 13 14 15 -16 17 18 19 20 21 -22 -23 24 25 26 27 28 29 30 -31 -32 -33 34 35 -36 -37 38 0
1 2 3 4 5 6 7 8 9 10 11 12 13 14 15 16 17 18 19 20 21 -22 23 24 -25 -26 -27 28 29 30 31 -32 33 -34 35 36 -37 38 0
1 2 3 4 5 6 -7 8 9 10 -11 12 13 14 15 -16 17 18 19 20 21 22 -23 24 -25 26 27 28 29 -30 31 32 33 34 35 36 -37 38 0
1 2 3 4 5 6 -7 8 9 10 -11 12 13 14 15 -16 17 18 19 20 21 22 -23 24 -25 26 27 28 29 -30 31 32 33 -34 35 36 37 38 0
1 2 3 4 5 6 7 8 9 10 11 12 13 14 15 16 17 18 19 20 21 -22 23 24 -25 -26 -27 28 29 30 31 32 -33 -34 -35 36 37 -38 0
1 2 3 4 5 6 -7 8 9 10 -11 12 13 14 15 -16 17 18 19 20 21 22 -23 -24 -25 26 27 28 29 -30 31 32 -33 34 35 36 37 38 0
1 2 3 4 5 6 7 8 9 10 11 12 13 14 -15 16 17 18 19 -20 21 -22 23 24 -25 26 -27 28 29 30 31 -32 33 34 35 36 -37 38 0
1 2 3 4 5 6 7 8 9 10 11 12 13 14 -15 -16 17 18 19 -20 21 -22 23 24 -25 26 27 28 29 -30 31 32 33 34 35 36 -37 38 0
1 2 3 4 5 6 -7 8 9 10 -11 12 13 14 15 16 -17 18 19 20 21 22 23 24 -25 -26 27 28 29 30 -31 32 -33 34 35 36 37 -38 0
1 2 3 4 5 6 7 8 9 10 11 12 13 14 -15 -16 17 18 19 -20 21 -22 23 24 -25 26 27 28 29 -30 31 32 33 -34 35 36 37 38 0
1 2 3 4 5 6 -7 8 9 10 11 -12 13 14 15 16 17 18 19 20 21 22 23 -24 -25 26 27 -28 -29 30 31 -32 33 34 35 36 -37 38 0
1 2 3 4 5 6 7 8 9 10 11 12 13 14 -15 -16 17 18 19 -20 21 -22 23 24 -25 26 27 -28 -29 30 31 32 33 34 35 36 37 -38 0
1 2 3 4 5 6 7 8 9 10 11 12 13 14 -15 -16 17 18 19 -20 21 -22 23 24 -25 26 27 28 29 -30 31 32 -33 34 35 36 37 -38 0
1 -2 -3 4 5 -6 7 8 9 10 11 -12 13 14 15 16 17 18 19 20 21 22 23 24 25 26 27 -28 29 30 31 -32 33 34 35 36 37 -38 0
1 2 3 4 5 6 -7 8 9 10 -11 12 13 14 15 16 -17 18 19 20 21 22 23 -24 -25 26 27 28 29 -30 31 32 33 34 35 36 -37 38 0
1 2 3 4 5 6 -7 8 9 10 11 -12 13 14 15 16 17 18 19 20 21 22 23 24 25 -26 27 28 -29 30 -31 32 33 -34 35 36 -37 38 0
1 2 3 4 5 6 7 8 9 10 11 12 13 14 15 16 17 18 19 -20 21 22 23 -24 25 -26 27 28 -29 30 -31 32 33 -34 -35 36 37 -38 0
1 2 3 4 5 6 7 8 9 10 11 -12 13 14 15 -16 17 18 19 20 -21 22 -23 24 25 26 -27 28 29 30 31 -32 33 34 35 36 37 -38 0
1 2 3 4 5 6 -7 8 9 10 11 -12 13 14 15 16 17 18 19 20 21 22 23 24 25 26 27 28 -29 -30 31 -32 -33 34 -35 36 37 -38 0
1 -2 -3 4 5 -6 7 8 9 10 11 -12 13 14 15 16 17 18 19 20 21 22 -23 24 25 26 27 -28 29 30 31 32 33 34 35 36 37 -38 0
1 2 3 4 5 6 7 8 9 10 11 12 13 14 -15 16 17 18 19 -20 21 -22 23 24 -25 26 -27 28 29 30 31 -32 33 34 35 36 37 -38 0
1 2 3 4 5 6 -7 8 9 10 -11 12 13 14 15 16 -17 18 19 20 21 22 23 24 25 -26 27 28 -29 30 -31 32 -33 34 35 36 37 -38 0
1 2 3 4 5 6 -7 8 9 10 11 -12 13 14 15 16 17 18 19 20 -21 22 23 24 -25 26 -27 28 29 -30 31 32 33 34 35 36 37 -38 0
1 2 3 4 5 6 7 8 9 10 11 12 13 14 15 16 17 18 19 -20 -21 22 -23 -24 25 -26 27 -28 -29 30 31 32 33 34 35 36 37 -38 0
1 -2 -3 4 5 -6 7 8 9 10 11 -12 13 14 15 16 17 18 19 20 21 22 23 24 25 26 27 28 29 -30 31 32 33 -34 35 -36 37 38 0
1 -2 -3 4 5 -6 7 8 9 10 11 -12 13 14 15 16 17 18 19 20 21 22 23 -24 -25 26 27 28 -29 30 31 32 33 34 35 36 37 -38 0
1 2 3 4 5 6 7 -8 9 -10 -11 12 13 -14 15 -16 17 18 -19 20 21 22 23 24 25 26 27 28 29 30 31 32 33 34 35 36 37 -38 0
1 2 -3 -4 5 -6 7 8 9 10 11 12 13 14 15 16 17 18 19 -20 21 22 23 -24 25 -26 27 28 29 -30 31 32 33 34 35 36 37 38 0
1 2 -3 -4 5 -6 7 8 9 10 11 -12 13 14 15 16 17 18 19 20 21 22 23 24 -25 26 27 28 29 -30 31 32 33 34 35 36 37 -38 0
1 2 -3 -4 5 -6 7 8 9 10 11 12 13 14 15 16 17 18 19 20 21 22 23 24 25 26 27 28 29 30 -31 32 33 -34 -35 36 37 -38 0
1 2 -3 -4 5 -6 7 8 9 10 11 -12 13 14 15 16 17 18 19 20 21 22 -23 24 25 26 27 -28 29 30 31 32 33 34 35 36 37 -38 0
1 2 -3 -4 5 -6 7 8 9 10 11 12 13 14 15 16 17 18 19 -20 21 22 23 -24 25 -26 27 28 -29 30 31 32 33 34 35 36 37 -38 0
1 2 3 4 5 6 -7 8 9 10 -11 12 13 14 -15 16 -17 18 19 20 21 -22 23 24 25 26 27 -28 29 30 31 32 33 34 35 36 37 -38 0
1 2 -3 -4 5 -6 7 8 9 10 11 -12 13 14 15 16 17 18 19 20 21 22 23 24 25 26 27 -28 29 30 31 -32 33 34 35 36 37 -38 0
1 2 -3 -4 5 -6 7 8 9 10 11 -12 13 14 15 16 17 18 19 20 21 22 23 -24 -25 26 27 28 -29 30 31 32 33 34 35 36 37 -38 0
1 2 -3 -4 5 -6 7 8 9 10 11 12 13 14 15 16 17 18 19 20 21 22 23 -24 -25 26 27 28 29 -30 31 32 33 34 35 36 -37 38 0
1 2 3 4 5 6 7 8 9 10 11 -12 13 14 15 16 -17 18 19 20 21 22 23 24 25 26 27 -28 29 30 -31 32 33 -34 -35 36 37 -38 0
1 2 3 4 5 6 -7 8 9 10 11 -12 13 14 15 16 17 -18 -19 -20 21 22 23 24 25 -26 27 28 29 -30 31 32 33 34 35 36 37 38 0
1 -2 -3 4 5 -6 7 8 9 10 11 -12 13 14 15 16 17 18 19 20 21 22 23 24 25 26 27 28 -29 -30 31 32 33 -34 35 36 37 38 0
1 2 -3 -4 5 -6 7 8 9 10 11 -12 13 14 15 16 17 18 19 20 21 22 23 -24 -25 26 27 28 29 -30 31 32 33 34 35 36 37 38 0
1 2 -3 -4 5 -6 7 8 9 10 11 -12 13 14 15 16 17 18 19 20 21 22 23 24 -25 26 27 28 29 -30 31 32 -33 34 35 36 37 38 0
1 2 3 4 5 6 7 8 9 10 11 -12 13 14 15 16 -17 -18 -19 -20 21 22 23 24 25 -26 27 28 -29 30 31 32 33 34 35 36 37 -38 0
1 2 3 4 5 6 -7 8 9 10 11 -12 13 14 15 16 17 -18 -19 -20 21 22 23 24 25 -26 27 28 -29 30 31 32 33 34 35 36 37 -38 0
1 2 -3 -4 5 -6 7 8 9 10 11 12 13 14 15 16 17 18 19 20 21 22 23 24 25 -26 27 28 -29 30 -31 32 -33 34 35 36 37 -38 0
1 2 3 4 5 6 7 8 9 10 11 12 13 14 15 16 17 18 19 -20 -21 22 -23 24 25 -26 27 -28 29 -30 31 32 -33 34 35 36 37 38 0
1 2 3 4 5 6 -7 8 9 10 -11 12 13 14 15 16 -17 18 19 -20 21 22 23 -24 25 -26 27 28 -29 30 31 32 33 34 35 36 37 -38 0
1 2 3 4 5 6 7 8 9 10 11 12 13 14 15 16 17 -18 -19 -20 21 22 23 24 25 -26 27 -28 29 -30 31 -32 33 34 35 36 37 38 0
1 2 3 4 5 6 7 8 9 10 11 12 13 14 15 16 -17 18 19 20 21 22 -23 24 25 26 27 28 29 -30 -31 -32 33 34 35 -36 -37 38 0
1 2 3 4 5 6 7 8 9 10 11 12 13 14 15 16 -17 18 19 20 21 -22 23 24 25 26 -27 -28 29 30 31 32 33 -34 -35 36 37 -38 0
1 2 -3 -4 5 -6 7 8 9 10 11 12 13 14 15 16 17 18 19 20 21 22 23 24 -25 -26 27 28 29 30 -31 32 -33 34 35 36 37 38 0
1 -2 -3 4 5 -6 7 8 9 10 11 -12 13 14 15 16 17 18 19 20 21 22 23 24 25 26 27 28 -29 -30 31 32 -33 34 35 36 37 -38 0
1 2 3 4 5 6 -7 8 9 10 11 -12 13 14 15 16 17 18 19 -20 -21 22 23 -24 25 -26 27 28 -29 30 31 32 33 34 35 36 37 -38 0
1 2 3 4 5 6 7 8 9 10 11 12 13 14 -15 -16 17 18 19 -20 21 -22 23 -24 25 -26 27 28 -29 30 31 32 33 34 35 36 37 -38 0
1 2 3 4 5 6 7 8 9 10 11 -12 13 14 15 16 -17 -18 -19 -20 21 22 23 24 25 -26 27 28 29 -30 31 32 33 34 35 36 37 38 0
1 2 3 4 5 6 7 8 9 10 11 -12 13 14 15 16 -17 18 19 20 21 22 23 24 25 -26 27 28 -29 30 -31 32 33 -34 35 36 -37 38 0
1 2 3 4 5 6 -7 8 9 10 11 -12 13 14 15 16 17 18 19 -20 21 22 23 -24 25 -26 27 28 29 -30 31 32 33 34 35 36 -37 38 0
1 2 -3 -4 5 -6 7 8 9 10 11 -12 13 14 15 16 17 18 19 20 21 22 23 24 25 26 27 28 29 -30 31 32 33 -34 35 -36 37 38 0
1 2 3 4 5 6 -7 8 9 10 11 -12 13 14 15 16 17 18 19 20 21 22 23 24 25 26 27 -28 29 30 -31 32 33 -34 -35 36 37 -38 0
1 2 -3 -4 5 -6 7 8 9 10 11 -12 13 14 15 16 17 18 19 20 21 22 23 24 25 26 27 28 -29 -30 31 32 -33 34 35 36 37 -38 0
1 2 3 4 5 6 7 8 9 10 11 12 13 14 -15 16 17 -18 -19 -20 -21 22 23 24 25 26 27 28 -29 -30 31 32 -33 34 35 36 37 38 0
1 2 3 4 5 6 -7 8 9 10 -11 12 13 14 15 16 -17 18 19 20 21 22 23 24 -25 26 27 28 29 -30 31 32 33 -34 35 -36 37 38 0
1 2 -3 -4 5 -6 7 8 9 10 11 -12 13 14 15 16 17 18 19 20 21 22 23 24 25 26 27 28 -29 -30 31 32 33 -34 35 36 37 38 0
1 -2 -3 4 5 -6 7 8 9 10 11 -12 13 14 15 16 17 18 19 20 21 22 23 24 -25 26 27 28 29 -30 31 32 33 34 35 36 37 -38 0
1 2 3 4 5 6 7 8 9 10 11 -12 13 14 15 16 -17 18 19 20 21 22 23 24 25 26 27 28 -29 -30 31 -32 -33 34 -35 36 37 -38 0
1 2 3 4 5 6 -7 8 9 10 11 -12 13 14 15 16 17 18 19 20 21 22 23 24 25 -26 -27 28 -29 30 -31 32 -33 34 35 36 37 -38 0
1 2 3 4 5 6 -7 8 9 10 -11 12 13 14 15 16 -17 18 19 20 21 22 23 24 25 26 27 28 29 30 -31 32 33 -34 -35 36 37 -38 0
1 2 3 4 5 6 7 8 9 10 11 -12 13 14 15 16 -17 18 19 -20 21 22 23 -24 25 -26 27 28 29 -30 31 32 33 34 35 36 -37 38 0
1 2 3 4 5 6 7 8 9 10 11 -12 13 14 15 -16 17 18 19 20 21 22 -23 -24 -25 26 27 28 29 -30 31 32 33 -34 35 36 37 38 0
1 2 3 4 5 6 7 8 9 10 11 12 13 14 15 16 17 18 19 20 21 22 23 -24 -25 26 -27 28 -29 30 -31 -32 33 34 35 -36 -37 38 0
1 -2 -3 4 5 -6 7 8 9 10 11 -12 13 14 15 16 17 18 19 20 21 22 23 24 -25 26 27 28 29 -30 31 32 -33 34 35 36 37 38 0
1 2 3 4 5 6 7 8 9 10 11 12 13 14 -15 -16 17 18 19 20 21 -22 23 -24 -25 -26 27 28 29 30 31 32 33 34 35 36 -37 38 0
1 2 -3 -4 5 -6 7 8 9 10 11 12 13 14 15 16 17 18 19 20 21 22 -23 24 25 26 -27 28 29 30 31 -32 33 34 35 36 37 -38 0
1 2 3 4 5 6 -7 8 9 10 11 -12 13 14 15 16 17 18 19 20 21 22 -23 -24 -25 26 27 -28 -29 30 31 32 33 34 35 36 37 -38 0
1 -2 -3 4 5 -6 7 8 9 10 11 -12 13 14 15 16 17 18 19 20 21 22 23 -24 -25 26 27 28 29 -30 31 32 33 34 35 36 37 38 0
1 2 3 4 5 6 7 8 9 10 11 12 13 14 -15 -16 17 18 19 -20 21 -22 23 -24 25 26 27 -28 29 30 31 32 33 34 35 36 -37 38 0
1 2 3 4 5 6 7 8 9 10 -11 12 13 14 15 -16 -17 18 19 20 21 22 23 24 25 26 -27 -28 29 30 -31 32 33 34 35 36 37 -38 0
1 2 3 4 5 6 7 8 -9 -10 11 12 -13 14 15 -16 17 -18 19 20 -21 -22 23 24 25 26 27 28 29 30 31 32 33 34 35 36 37 38 0
1 2 3 4 5 6 7 8 9 10 11 12 13 14 15 -16 17 18 19 20 21 -22 -23 24 -25 -26 27 28 29 30 -31 32 -33 34 35 36 37 38 0
1 2 3 4 5 6 7 8 9 10 11 -12 13 14 15 -16 17 18 19 20 21 22 -23 24 -25 26 27 28 29 -30 31 32 33 -34 35 -36 37 38 0
1 2 -3 -4 5 -6 7 8 9 10 11 12 13 14 15 16 17 18 19 20 21 22 23 -24 -25 26 27 28 29 -30 31 32 -33 34 35 36 37 -38 0
1 2 3 4 5 6 7 8 9 10 11 -12 13 14 15 -16 17 18 19 20 21 22 -23 -24 -25 26 27 28 29 -30 31 32 33 34 35 36 -37 38 0
1 2 3 4 5 6 7 8 9 10 11 12 13 14 15 16 -17 18 19 20 21 -22 23 24 25 -26 27 -28 -29 30 -31 32 33 -34 35 36 37 38 0
1 2 3 4 5 6 -7 8 9 10 -11 12 13 14 15 16 -17 18 19 20 21 22 23 24 -25 -26 27 28 29 -30 31 32 33 34 35 36 37 -38 0
1 2 -3 -4 5 -6 7 8 9 10 11 12 13 14 15 16 17 18 19 20 21 22 23 24 25 -26 27 28 -29 30 -31 32 33 -34 35 36 37 38 0
1 2 3 4 5 6 7 8 9 10 11 12 13 14 -15 -16 17 18 19 -20 21 -22 23 24 -25 -26 27 28 29 30 31 32 33 34 35 36 37 -38 0
1 2 3 4 5 6 -7 8 9 10 11 -12 13 14 15 16 17 18 19 20 21 22 23 -24 -25 26 27 -28 -29 30 31 -32 33 34 35 36 37 -38 0
1 2 3 4 5 6 7 8 9 10 11 -12 13 14 15 16 -17 18 19 20 21 22 23 -24 -25 26 27 -28 -29 30 31 -32 33 34 35 36 37 -38 0
1 2 3 4 5 6 7 8 9 10 11 12 13 14 -15 -16 17 18 19 -20 21 -22 23 24 -25 26 27 28 -29 30 31 32 33 34 35 36 -37 38 0
1 2 3 4 5 6 -7 8 9 10 -11 12 13 14 15 -16 17 18 19 20 21 22 -23 24 25 26 27 28 -29 -30 31 32 -33 34 35 36 37 -38 0
1 2 3 4 5 6 7 8 9 10 11 12 13 14 -15 -16 17 18 19 20 21 -22 23 24 25 -26 27 28 29 -30 -31 32 33 34 35 36 37 -38 0
1 2 3 4 5 6 -7 8 9 10 -11 12 13 14 15 16 -17 18 19 20 21 22 23 -24 -25 26 27 28 29 -30 31 32 -33 34 35 36 37 -38 0
1 2 3 4 5 6 -7 8 9 10 -11 12 13 14 15 -16 17 18 19 20 21 22 -23 -24 -25 26 27 28 -29 30 31 32 33 34 35 36 37 -38 0
1 2 -3 -4 5 -6 7 8 9 10 11 12 13 14 15 16 17 18 19 20 21 22 23 24 -25 26 27 28 29 -30 31 32 33 -34 35 -36 37 38 0
1 2 3 4 5 6 -7 8 9 10 -11 12 13 14 15 16 -17 18 19 20 21 22 23 -24 -25 26 27 28 29 -30 31 32 33 -34 35 36 37 38 0
1 2 -3 -4 5 -6 7 8 9 10 11 12 13 14 15 16 17 18 19 20 21 22 23 24 -25 -26 27 28 29 -30 31 32 33 34 35 36 37 -38 0
1 2 3 4 5 6 -7 8 9 10 -11 12 13 14 15 -16 17 18 19 20 21 22 -23 24 25 26 27 28 -29 -30 31 32 33 -34 35 36 37 38 0
1 2 -3 -4 5 -6 7 8 9 10 11 12 13 14 15 16 17 18 19 20 21 22 23 -24 -25 26 27 28 29 -30 31 32 33 -34 35 36 37 38 0
1 2 3 4 5 6 7 8 9 10 11 -12 13 14 15 -16 17 18 19 20 21 22 -23 -24 -25 26 27 28 29 -30 31 32 -33 34 35 36 37 -38 0
1 2 3 4 5 6 7 8 9 10 11 12 13 14 -15 -16 17 18 19 -20 21 -22 23 24 -25 26 27 28 29 -30 31 32 33 34 35 36 37 -38 0
1 2 3 4 5 6 -7 8 9 10 -11 12 13 14 15 16 -17 18 19 -20 21 22 23 -24 25 -26 27 28 29 -30 31 32 33 34 35 36 37 38 0
1 2 3 4 5 6 -7 8 9 10 -11 12 13 14 15 -16 17 18 19 20 21 22 -23 -24 -25 26 27 28 29 -30 31 32 33 34 35 36 37 38 0
1 2 3 4 5 6 -7 8 9 10 -11 12 13 14 15 -16 17 18 19 20 21 22 -23 24 -25 26 27 28 29 -30 31 32 33 34 35 36 37 -38 0
1 2 3 4 5 6 7 8 9 10 11 12 13 14 15 16 17 18 19 20 -21 22 23 24 -25 26 -27 28 29 30 -31 32 33 -34 -35 36 37 -38 0
1 2 3 4 5 6 -7 8 9 10 -11 12 13 14 15 -16 17 18 19 20 21 22 -23 24 25 26 27 28 29 -30 31 32 33 -34 35 -36 37 38 0
1 2 3 4 5 6 7 8 9 10 11 12 13 14 -15 -16 17 18 19 -20 21 -22 23 -24 25 26 27 28 29 30 31 32 -33 -34 35 -36 37 38 0
1 2 3 4 5 6 7 8 9 10 11 12 13 14 15 16 17 18 19 20 -21 -22 23 24 25 26 -27 28 29 -30 31 32 33 -34 -35 36 37 -38 0
1 2 3 4 5 6 7 8 9 10 11 12 13 14 15 16 17 18 19 20 21 -22 23 24 -25 -26 -27 28 29 30 31 32 33 -34 -35 36 37 -38 0
1 2 3 4 5 6 7 8 9 10 11 12 13 14 -15 -16 17 18 19 -20 21 -22 23 24 -25 26 27 28 29 -30 31 32 -33 34 35 36 37 38 0
1 2 3 4 5 6 7 8 9 10 11 12 13 14 -15 16 17 18 19 -20 21 -22 23 24 -25 26 -27 28 29 -30 31 32 33 34 35 36 37 -38 0
1 2 3 4 5 6 7 8 9 10 11 12 13 14 -15 -16 17 18 19 20 -21 22 23 24 25 26 -27 28 29 -30 -31 32 33 34 35 36 37 -38 0
1 2 3 4 5 6 -7 8 9 10 -11 12 13 14 15 16 -17 18 19 20 21 22 23 24 -25 -26 27 28 29 30 -31 32 -33 34 35 36 37 38 0
1 2 3 4 5 6 7 8 9 10 11 12 13 14 -15 -16 17 18 19 -20 21 -22 23 24 -25 26 27 -28 -29 30 31 32 33 34 35 36 37 38 0
1 2 3 4 5 6 -7 8 9 10 -11 12 13 14 15 16 -17 18 19 20 21 22 23 24 25 -26 27 28 -29 30 -31 32 33 -34 35 36 37 38 0
1 2 3 4 5 6 -7 8 9 10 -11 12 13 14 15 -16 17 18 19 20 21 22 -23 24 -25 26 27 28 29 -30 31 32 -33 34 35 36 37 38 0
1 2 3 4 5 6 -7 8 9 10 11 -12 13 14 15 16 17 18 19 20 21 22 23 -24 -25 26 27 -28 -29 30 31 -32 33 34 35 36 37 38 0
1 2 3 4 5 6 7 8 9 10 11 -12 13 14 15 -16 17 18 19 20 21 -22 23 24 -25 -26 27 28 29 30 31 32 33 34 35 36 -37 38 0
1 2 -3 -4 5 -6 7 8 9 10 11 -12 13 14 15 16 17 18 19 20 21 22 23 24 25 26 27 28 29 30 31 -32 33 34 -35 36 37 38 0
1 2 3 4 5 6 -7 8 9 10 11 -12 13 14 15 16 17 -18 -19 -20 21 22 23 24 25 -26 27 28 -29 30 31 32 33 34 35 36 37 38 0
1 2 -3 -4 5 -6 7 8 9 10 11 12 13 14 15 16 17 18 19 20 21 22 23 24 25 26 27 -28 29 30 31 -32 33 34 35 36 -37 38 0
1 2 -3 -4 5 -6 7 8 9 10 11 12 13 14 15 16 17 18 19 20 21 22 23 24 25 26 27 -28 29 30 -31 32 33 34 -35 36 37 38 0
1 2 3 4 5 6 -7 8 9 10 11 -12 13 14 15 16 17 18 19 20 21 22 -23 24 25 26 -27 28 29 30 -31 32 33 34 -35 36 37 38 0
1 2 3 4 5 6 -7 8 9 10 11 -12 13 14 15 16 17 18 19 20 21 22 23 24 25 -26 -27 28 -29 30 -31 32 -33 34 35 36 37 38 0
1 2 -3 -4 5 -6 7 8 9 10 11 -12 13 14 15 16 17 18 19 20 21 22 23 24 -25 26 27 28 29 -30 31 32 33 34 35 36 37 38 0
1 -2 -3 4 5 -6 7 8 9 10 11 -12 13 14 15 16 17 18 19 20 21 22 23 24 -25 26 27 28 29 -30 31 32 33 34 35 36 37 38 0
1 2 3 4 5 6 7 8 9 10 11 12 13 14 -15 16 17 18 19 -20 21 -22 23 -24 25 -26 27 28 -29 30 31 32 33 34 35 36 -37 38 0
1 2 3 4 5 6 7 8 9 10 11 12 13 14 15 16 17 18 19 -20 -21 22 -23 -24 25 -26 27 -28 -29 30 31 32 33 34 35 36 37 38 0
1 2 3 4 5 6 7 8 9 10 11 -12 13 14 15 -16 17 18 19 20 -21 22 -23 24 25 26 -27 28 29 30 31 -32 33 34 35 36 37 38 0
1 2 3 4 5 6 7 8 9 10 11 -12 13 14 15 16 -17 18 19 -20 21 22 23 -24 25 -26 27 28 29 -30 31 32 33 34 35 36 37 -38 0
1 2 -3 -4 5 -6 7 8 9 10 11 -12 13 14 15 16 17 18 19 20 21 22 23 -24 -25 26 27 28 -29 30 31 32 33 34 35 36 37 38 0
1 2 3 4 5 6 -7 8 9 10 11 -12 13 14 15 16 17 18 19 -20 -21 22 23 -24 25 -26 27 28 -29 30 31 32 33 34 35 36 37 38 0
1 -2 -3 4 5 -6 7 8 9 10 11 -12 13 14 15 16 17 18 19 20 21 22 23 24 25 26 27 -28 29 30 31 -32 33 34 35 36 37 38 0
1 2 3 4 5 6 7 8 9 10 11 12 13 14 -15 -16 17 18 19 20 21 -22 23 -24 -25 -26 27 28 29 30 31 32 33 34 35 36 37 -38 0
1 2 3 4 5 6 -7 8 9 10 -11 12 13 14 15 16 -17 18 19 20 21 22 23 24 25 26 27 28 29 30 31 -32 33 -34 35 36 -37 38 0
1 2 -3 -4 5 -6 7 8 9 10 11 12 13 14 15 16 17 18 19 20 21 22 23 24 -25 26 27 28 29 -30 31 32 33 34 35 36 -37 38 0
1 2 -3 -4 5 -6 7 8 9 10 11 -12 13 14 15 16 17 18 19 20 21 22 23 24 25 26 27 28 29 30 31 32 -33 -34 35 -36 37 38 0
1 2 -3 -4 5 -6 7 8 9 10 11 -12 13 14 15 16 17 18 19 20 21 22 -23 24 25 26 27 -28 29 30 31 32 33 34 35 36 37 38 0
1 2 3 4 5 6 7 -8 9 -10 -11 12 13 -14 15 -16 17 18 -19 20 21 22 23 24 25 26 27 28 29 30 31 32 33 34 35 36 37 38 0
1 -2 -3 4 5 -6 7 8 9 10 11 -12 13 14 15 16 17 18 19 20 21 22 23 24 25 26 27 28 29 30 31 -32 33 34 -35 36 37 38 0
1 2 3 4 5 6 7 8 9 10 11 12 13 14 15 16 17 -18 -19 -20 21 22 23 24 25 -26 27 28 -29 30 -31 32 -33 34 35 36 37 -38 0
1 -2 -3 4 5 -6 7 8 9 10 11 -12 13 14 15 16 17 18 19 20 21 22 -23 24 25 26 27 -28 29 30 31 32 33 34 35 36 37 38 0
1 2 3 4 5 6 7 8 9 10 11 12 13 14 -15 -16 17 18 19 -20 21 -22 23 -24 25 -26 27 28 -29 30 31 32 33 34 35 36 37 38 0
1 2 3 4 5 6 7 8 9 10 11 12 13 14 15 16 17 18 19 -20 21 22 23 -24 25 -26 27 28 -29 30 -31 32 33 -34 35 36 -37 38 0
1 2 3 4 5 6 -7 8 9 10 11 -12 13 14 15 16 17 18 19 20 21 22 23 24 25 26 27 -28 29 30 -31 32 33 -34 35 36 -37 38 0
1 2 3 4 5 6 -7 8 9 10 -11 12 13 14 15 16 -17 18 19 20 21 22 23 24 -25 26 27 28 29 -30 31 32 33 34 35 36 -37 38 0
1 2 3 4 5 6 -7 8 9 10 11 -12 13 14 15 16 17 18 19 -20 21 22 23 -24 25 -26 27 28 -29 30 31 32 33 34 35 36 -37 38 0
1 2 -3 -4 5 -6 7 8 9 10 11 12 13 14 15 16 17 18 19 20 21 22 -23 24 25 26 27 -28 29 30 31 32 33 34 35 36 -37 38 0
1 2 3 4 5 6 7 8 9 10 11 12 13 14 15 16 17 18 19 20 -21 -22 23 24 -25 26 -27 28 29 -30 31 32 33 34 35 36 -37 38 0
1 2 -3 -4 5 -6 7 8 9 10 11 -12 13 14 15 16 17 18 19 20 21 22 23 24 25 26 27 -28 29 30 31 -32 33 34 35 36 37 38 0
1 2 3 4 5 6 7 8 9 10 11 12 13 14 15 16 17 18 19 -20 -21 22 23 -24 25 26 -27 28 -29 30 -31 32 -33 34 35 36 37 -38 0
1 2 3 4 5 6 -7 8 9 10 -11 12 13 14 15 -16 17 18 19 20 21 22 -23 24 25 26 27 28 29 30 31 -32 33 34 -35 36 37 38 0
1 2 3 4 5 6 -7 8 9 10 -11 12 13 14 15 16 -17 18 19 20 21 22 23 24 25 26 27 -28 29 30 -31 32 33 34 -35 36 37 38 0
1 2 3 4 5 6 -7 8 9 10 11 -12 13 14 15 16 17 18 19 20 21 22 -23 -24 -25 26 27 -28 -29 30 31 32 33 34 35 36 37 38 0
1 2 -3 -4 5 -6 7 8 9 10 11 12 13 14 15 16 17 18 19 20 21 22 23 24 -25 -26 27 28 29 -30 31 32 33 34 35 36 37 38 0
1 2 -3 -4 5 -6 7 8 9 10 11 12 13 14 15 16 17 18 19 -20 21 22 23 -24 25 -26 27 28 -29 30 31 32 33 34 35 36 37 38 0
1 2 3 4 5 6 7 8 9 10 11 12 13 14 15 16 -17 18 19 20 21 22 -23 24 25 26 27 28 29 -30 -31 -32 33 34 35 36 -37 38 0
1 2 -3 -4 5 -6 7 8 9 10 11 12 13 14 15 16 17 18 19 20 21 22 23 -24 -25 26 27 28 -29 30 31 32 33 34 35 36 -37 38 0
1 2 3 4 5 6 -7 8 9 10 11 -12 13 14 15 16 17 18 19 20 21 22 23 24 -25 -26 27 28 29 30 -31 32 -33 34 35 36 37 -38 0
1 2 3 4 5 6 -7 8 9 10 11 -12 13 14 15 16 17 18 19 20 21 22 -23 24 25 26 -27 28 29 30 31 -32 33 34 35 36 -37 38 0
1 -2 -3 4 5 -6 7 8 9 10 11 -12 13 14 15 16 17 18 19 20 21 22 23 -24 -25 26 27 28 -29 30 31 32 33 34 35 36 37 38 0
1 -2 -3 4 5 -6 7 8 9 10 11 -12 13 14 15 16 17 18 19 20 21 22 23 24 25 26 27 28 29 30 31 32 -33 -34 35 -36 37 38 0
1 2 3 4 5 6 -7 8 9 10 -11 12 13 14 15 16 -17 18 19 20 21 22 23 -24 -25 26 27 28 -29 30 31 32 33 34 35 36 -37 38 0
1 2 3 4 5 6 -7 8 9 10 -11 12 13 14 15 16 -17 18 19 20 21 22 23 24 -25 26 27 28 29 -30 31 32 33 -34 35 36 37 38 0
1 -2 -3 4 5 -6 7 8 9 10 11 -12 13 14 15 16 17 18 19 20 21 22 23 24 25 26 27 28 -29 -30 31 32 -33 34 35 36 37 38 0
1 2 3 4 5 6 -7 8 9 10 -11 12 13 14 15 -16 17 18 19 20 21 22 -23 24 25 26 27 28 29 30 31 32 -33 -34 35 -36 37 38 0
1 2 3 4 5 6 7 8 9 10 11 -12 13 14 15 16 -17 18 19 -20 21 22 23 -24 25 -26 27 28 -29 30 31 32 33 34 35 36 -37 38 0
1 2 3 4 5 6 7 8 9 10 11 12 13 14 -15 -16 17 18 19 20 -21 22 23 24 25 26 -27 28 29 -30 -31 32 33 34 35 36 37 38 0
1 2 3 4 5 6 -7 8 9 10 -11 12 13 14 15 16 -17 18 19 -20 21 22 23 -24 25 -26 27 28 -29 30 31 32 33 34 35 36 37 38 0
1 2 -3 -4 5 -6 7 8 9 10 11 12 13 14 15 16 17 18 19 20 21 22 23 24 -25 26 27 28 29 -30 31 32 -33 34 35 36 37 -38 0
1 2 3 4 5 6 7 8 9 10 11 12 13 14 15 16 17 18 19 20 21 22 23 24 25 -26 -27 28 -29 30 -31 -32 33 34 35 -36 -37 38 0
1 2 3 4 5 6 -7 8 9 10 11 -12 13 14 15 16 17 18 19 20 21 22 23 24 -25 -26 27 28 29 -30 31 32 33 34 35 36 -37 38 0
1 -2 -3 4 5 -6 7 8 9 10 11 -12 13 14 15 16 17 18 19 20 21 22 23 24 25 26 27 28 29 -30 31 32 33 -34 35 36 37 38 0
1 2 -3 -4 5 -6 7 8 9 10 11 12 13 14 15 16 17 18 19 20 21 22 23 24 25 -26 27 28 -29 30 -31 32 -33 34 35 36 37 38 0
1 2 -3 -4 5 -6 7 8 9 10 11 -12 13 14 15 16 17 18 19 20 21 22 23 24 25 26 27 28 -29 -30 31 32 -33 34 35 36 37 38 0
1 2 3 4 5 6 -7 8 9 10 11 -12 13 14 15 16 17 18 19 20 -21 22 23 24 -25 26 -27 28 29 -30 31 32 33 34 35 36 37 38 0
1 2 3 4 5 6 7 8 9 10 11 -12 13 14 15 16 -17 18 19 20 21 22 23 24 25 26 27 -28 29 30 -31 32 33 -34 35 36 -37 38 0
1 2 3 4 5 6 7 8 9 10 11 -12 13 14 15 -16 17 18 19 20 21 22 -23 24 25 26 27 28 -29 -30 31 32 33 -34 35 -36 37 38 0
1 2 3 4 5 6 7 8 9 10 11 -12 13 14 15 -16 17 18 19 20 21 22 -23 24 25 26 27 28 29 30 31 -32 33 -34 35 36 -37 38 0
1 2 3 4 5 6 -7 8 9 10 11 -12 13 14 15 16 17 18 19 -20 21 22 23 -24 25 -26 27 28 29 -30 31 32 33 34 35 36 37 -38 0
1 2 -3 -4 5 -6 7 8 9 10 11 12 13 14 15 16 17 18 19 20 21 22 23 24 25 26 27 28 29 30 31 -32 33 -34 35 36 -37 38 0
1 2 3 4 5 6 7 8 9 10 11 -12 13 14 15 16 -17 -18 -19 -20 21 22 23 24 25 -26 27 28 -29 30 31 32 33 34 35 36 37 38 0
1 2 3 4 5 6 -7 8 9 10 -11 12 13 14 -15 16 -17 18 19 20 21 -22 23 24 25 26 27 -28 29 30 31 32 33 34 35 36 37 38 0
1 2 3 4 5 6 -7 8 9 10 -11 12 13 14 15 16 -17 18 19 20 21 22 23 24 25 26 27 28 -29 -30 31 32 33 -34 35 -36 37 38 0
1 2 3 4 5 6 -7 8 9 10 -11 12 13 14 15 -16 17 18 19 20 21 22 -23 -24 -25 26 27 28 -29 30 31 32 33 34 35 36 37 38 0
1 2 3 4 5 6 7 8 9 10 11 -12 13 14 15 -16 17 18 19 20 21 22 -23 24 -25 26 27 28 29 -30 31 32 33 34 35 36 -37 38 0
1 2 3 4 5 6 7 8 9 10 11 12 13 14 15 16 -17 18 19 20 21 -22 23 24 25 26 27 -28 29 30 31 32 -33 -34 -35 36 37 -38 0
1 2 -3 -4 5 -6 7 8 9 10 11 -12 13 14 15 16 17 18 19 20 21 22 23 24 25 26 27 28 29 -30 31 32 33 -34 35 36 37 38 0
1 2 -3 -4 5 -6 7 8 9 10 11 12 13 14 15 16 17 18 19 20 21 22 -23 24 25 26 -27 28 29 30 31 -32 33 34 35 36 37 38 0
1 2 -3 -4 5 -6 7 8 9 10 11 12 13 14 15 16 17 18 19 20 21 22 23 -24 -25 26 27 28 29 -30 31 32 33 34 35 36 37 -38 0
1 2 3 4 5 6 7 8 9 10 11 -12 13 14 15 16 -17 18 19 20 21 22 23 24 -25 -26 27 28 29 30 -31 32 -33 34 35 36 37 -38 0
1 2 3 4 5 6 7 8 9 10 11 12 13 14 -15 -16 17 18 19 -20 21 -22 23 24 -25 26 27 28 -29 30 31 32 33 34 35 36 37 -38 0
1 2 3 4 5 6 7 8 9 10 11 -12 13 14 15 -16 17 18 19 20 21 22 -23 -24 -25 26 27 28 29 -30 31 32 -33 34 35 36 37 38 0
1 2 3 4 5 6 7 8 9 10 11 12 13 14 -15 -16 17 18 19 -20 21 -22 23 24 -25 -26 27 28 29 30 31 32 33 34 35 36 37 38 0
1 2 3 4 5 6 7 8 9 10 11 12 13 14 15 16 17 18 19 -20 21 22 23 -24 25 -26 27 -28 29 -30 31 -32 33 34 35 36 37 -38 0
1 2 3 4 5 6 -7 8 9 10 11 -12 13 14 15 16 17 18 19 20 21 22 23 24 -25 -26 27 28 29 30 -31 32 33 -34 35 36 37 38 0
1 2 3 4 5 6 7 8 9 10 11 12 13 14 15 16 -17 18 19 20 21 -22 23 24 25 -26 27 -28 29 30 -31 32 33 34 -35 36 37 38 0
1 2 3 4 5 6 -7 8 9 10 11 -12 13 14 15 16 17 18 19 20 21 22 23 -24 -25 26 27 28 29 -30 31 32 33 -34 35 -36 37 38 0
1 2 3 4 5 6 7 8 9 10 11 12 13 14 15 16 17 -18 -19 -20 21 22 23 24 25 -26 27 28 -29 30 -31 32 33 -34 35 36 37 38 0
1 2 3 4 5 6 -7 8 9 10 -11 12 13 14 15 16 -17 18 19 20 21 22 23 -24 -25 26 27 28 29 -30 31 32 33 34 35 36 37 -38 0
1 2 3 4 5 6 7 8 9 10 11 12 13 14 15 16 17 18 19 20 21 -22 23 24 -25 -26 -27 28 29 30 31 32 -33 -34 35 -36 37 38 0
1 2 -3 -4 5 -6 7 8 9 10 11 12 13 14 15 16 17 18 19 20 21 22 23 -24 -25 26 27 28 29 -30 31 32 -33 34 35 36 37 38 0
1 2 3 4 5 6 -7 8 9 10 -11 12 13 14 15 16 -17 18 19 20 21 22 23 24 -25 -26 27 28 29 -30 31 32 33 34 35 36 37 38 0
1 2 3 4 5 6 7 8 9 10 11 12 13 14 15 16 -17 18 19 20 21 -22 23 24 25 -26 27 -28 29 -30 31 32 -33 34 35 36 37 -38 0
1 2 -3 -4 5 -6 7 8 9 10 11 12 13 14 15 16 17 18 19 20 21 22 23 24 25 26 27 28 -29 -30 31 32 33 -34 35 -36 37 38 0
1 2 3 4 5 6 7 8 9 10 11 -12 13 14 15 -16 17 18 19 20 21 22 -23 -24 -25 26 27 28 -29 30 31 32 33 34 35 36 -37 38 0
1 2 -3 -4 5 -6 7 8 9 10 11 12 13 14 15 16 17 18 19 20 21 22 23 24 25 26 27 -28 29 30 -31 32 33 -34 35 36 37 38 0
1 2 3 4 5 6 7 8 9 10 11 12 13 14 -15 -16 17 18 19 -20 21 -22 23 24 25 -26 27 28 29 30 31 32 33 34 35 36 -37 38 0
1 2 3 4 5 6 7 8 9 10 11 -12 13 14 15 16 -17 18 19 20 21 22 23 -24 -25 26 27 28 -29 30 31 -32 33 34 -35 36 37 38 0
1 2 3 4 5 6 7 8 9 10 11 12 13 14 15 16 17 18 19 20 -21 -22 23 24 -25 26 -27 28 29 30 31 -32 33 34 35 36 -37 38 0
1 2 3 4 5 6 7 8 9 10 11 12 13 14 -15 16 17 18 19 -20 21 -22 23 24 -25 -26 27 28 29 30 31 32 33 34 35 36 -37 38 0
1 2 3 4 5 6 -7 8 9 10 11 -12 13 14 15 16 17 18 19 20 21 22 23 -24 -25 26 27 28 -29 30 31 -32 33 34 -35 36 37 38 0
1 2 3 4 5 6 -7 8 9 10 -11 12 13 14 15 16 -17 18 19 20 21 22 23 24 25 26 27 -28 29 30 -31 32 33 -34 35 36 37 38 0
1 2 3 4 5 6 7 8 9 10 11 12 13 14 -15 -16 17 18 19 -20 21 -22 23 -24 25 26 27 -28 29 30 31 32 33 34 35 36 37 -38 0
1 2 -3 -4 5 -6 7 8 9 10 11 12 13 14 15 16 17 18 19 20 21 22 23 24 -25 26 27 28 29 -30 31 32 33 -34 35 36 37 38 0
1 2 -3 -4 5 -6 7 8 9 10 11 12 13 14 15 16 17 18 19 20 21 22 23 24 25 26 27 28 29 -30 -31 32 33 -34 35 36 37 38 0
1 2 3 4 5 6 7 8 9 10 11 12 13 14 -15 16 17 18 19 -20 21 -22 23 24 25 -26 -27 28 29 30 31 32 33 34 35 36 -37 38 0
1 2 3 4 5 6 7 8 9 10 11 12 13 14 -15 16 17 18 19 -20 21 -22 23 24 -25 26 -27 28 29 30 31 -32 33 34 35 36 37 38 0
1 2 3 4 5 6 7 8 9 10 11 12 13 14 -15 -16 17 18 19 20 -21 -22 23 24 25 26 27 28 29 30 31 32 -33 -34 35 -36 37 38 0
1 2 3 4 5 6 -7 8 9 10 -11 12 13 14 15 -16 17 18 19 20 21 22 -23 24 -25 26 27 28 29 -30 31 32 33 34 35 36 37 38 0
1 2 3 4 5 6 -7 8 9 10 -11 12 13 14 15 16 -17 18 19 20 21 22 23 -24 -25 26 27 28 29 -30 31 32 -33 34 35 36 37 38 0
1 2 3 4 5 6 7 8 9 10 11 -12 13 14 15 16 -17 18 19 20 21 22 23 24 -25 -26 27 28 29 30 -31 32 33 -34 35 36 37 38 0
1 2 3 4 5 6 7 8 9 10 11 -12 13 14 15 16 -17 18 19 20 21 22 23 -24 -25 26 27 28 29 -30 31 32 33 -34 35 -36 37 38 0
1 2 3 4 5 6 7 8 9 10 11 12 13 14 15 16 -17 18 19 20 21 22 -23 -24 -25 26 27 28 29 -30 31 32 33 -34 35 -36 37 38 0
1 2 3 4 5 6 -7 8 9 10 -11 12 13 14 15 16 -17 18 19 20 21 22 23 24 25 -26 27 28 -29 30 -31 32 -33 34 35 36 37 38 0
1 2 3 4 5 6 7 8 9 10 11 -12 13 14 15 16 -17 18 19 20 21 22 23 -24 -25 26 27 -28 -29 30 31 -32 33 34 35 36 37 38 0
1 2 3 4 5 6 -7 8 9 10 -11 12 13 14 15 16 -17 18 19 20 21 22 23 24 25 26 27 28 29 -30 -31 32 33 -34 35 36 37 38 0
1 2 3 4 5 6 7 8 9 10 11 12 13 14 -15 -16 17 18 19 -20 21 -22 23 24 -25 26 27 28 29 -30 31 32 33 34 35 36 37 38 0
1 2 3 4 5 6 7 8 9 10 11 -12 13 14 15 -16 17 18 19 20 21 22 -23 -24 -25 26 27 28 29 -30 31 32 33 34 35 36 37 -38 0
1 2 3 4 5 6 7 8 9 10 11 -12 13 14 15 16 -17 18 19 20 21 22 23 24 -25 -26 27 28 29 -30 31 32 33 34 35 36 -37 38 0
1 2 3 4 5 6 7 8 9 10 11 12 13 14 -15 -16 17 18 19 20 21 -22 23 24 25 -26 27 28 29 -30 -31 32 33 34 35 36 37 38 0
1 2 3 4 5 6 -7 8 9 10 -11 12 13 14 15 16 -17 18 19 20 21 22 23 24 25 26 27 -28 29 30 31 -32 33 34 35 36 -37 38 0
1 2 3 4 5 6 7 8 9 10 11 -12 13 14 15 -16 17 18 19 20 21 22 -23 24 -25 26 27 28 29 -30 31 32 -33 34 35 36 37 -38 0
1 2 3 4 5 6 7 8 9 10 -11 12 13 14 15 -16 -17 18 19 20 21 22 23 24 25 26 -27 -28 29 30 -31 32 33 34 35 36 37 38 0
1 2 3 4 5 6 7 8 9 10 11 12 13 14 15 16 -17 18 19 20 21 22 -23 -24 -25 26 27 28 -29 30 31 -32 33 34 -35 36 37 38 0
1 2 3 4 5 6 7 8 9 10 11 12 13 14 15 -16 17 18 19 20 21 -22 -23 24 25 26 27 28 29 30 -31 -32 33 -34 35 36 37 38 0
1 2 3 4 5 6 7 8 9 10 11 -12 13 14 15 -16 17 18 19 20 21 22 -23 24 -25 26 27 28 29 -30 31 32 33 -34 35 36 37 38 0
1 2 3 4 5 6 -7 8 9 10 -11 12 13 14 15 16 -17 18 19 20 21 22 23 24 -25 26 27 28 29 -30 31 32 -33 34 35 36 37 -38 0
1 2 3 4 5 6 7 8 9 10 11 12 13 14 -15 16 17 18 19 -20 21 -22 23 24 -25 26 -27 28 29 -30 31 32 33 34 35 36 37 38 0
1 2 3 4 5 6 -7 8 9 10 -11 12 13 14 15 -16 17 18 19 20 21 22 -23 24 25 26 27 28 -29 -30 31 32 -33 34 35 36 37 38 0
1 2 3 4 5 6 -7 8 9 10 -11 12 13 14 15 -16 17 18 19 20 21 22 -23 24 25 26 27 28 29 -30 31 32 33 -34 35 36 37 38 0
1 2 3 4 5 6 7 8 9 10 11 12 13 14 15 16 17 -18 -19 -20 21 22 23 24 25 -26 27 28 -29 30 -31 32 -33 34 35 36 37 38 0
1 2 3 4 5 6 7 8 9 10 11 12 13 14 15 16 17 18 19 -20 -21 22 23 -24 25 26 -27 28 -29 30 -31 32 -33 34 35 36 37 38 0
1 2 3 4 5 6 -7 8 9 10 11 -12 13 14 15 16 17 18 19 -20 21 22 23 -24 25 -26 27 28 -29 30 31 32 33 34 35 36 37 -38 0
1 2 3 4 5 6 7 8 9 10 11 -12 13 14 15 16 -17 18 19 20 21 22 23 24 -25 26 27 28 29 -30 31 32 33 -34 35 -36 37 38 0
1 2 3 4 5 6 7 8 9 10 11 12 13 14 15 16 -17 18 19 20 21 22 -23 -24 -25 26 27 28 29 -30 31 32 33 34 35 36 -37 38 0
1 2 -3 -4 5 -6 7 8 9 10 11 12 13 14 15 16 17 18 19 20 21 22 -23 24 25 26 27 -28 29 30 31 32 33 34 35 36 37 -38 0
1 2 3 4 5 6 7 8 9 10 11 12 13 14 -15 16 17 18 19 -20 21 -22 23 -24 25 -26 27 28 -29 30 31 32 33 34 35 36 37 -38 0
1 2 -3 -4 5 -6 7 8 9 10 11 12 13 14 15 16 17 18 19 20 21 22 23 24 25 26 27 -28 29 30 31 -32 33 34 35 36 37 -38 0
1 2 3 4 5 6 7 8 9 10 11 12 13 14 15 16 17 -18 -19 -20 21 22 23 24 25 -26 27 28 29 -30 31 32 33 34 35 36 -37 38 0
1 2 -3 -4 5 -6 7 8 9 10 11 12 13 14 15 16 17 18 19 20 21 22 23 24 -25 26 27 28 29 -30 31 32 33 34 35 36 37 -38 0
1 2 -3 -4 5 -6 7 8 9 10 11 12 13 14 15 16 17 18 19 20 21 22 23 24 25 26 27 28 -29 -30 31 32 33 -34 35 36 37 38 0
1 2 -3 -4 5 -6 7 8 9 10 11 12 13 14 15 16 17 18 19 20 21 22 23 24 25 26 27 28 29 -30 31 32 33 -34 35 -36 37 38 0
1 2 3 4 5 6 7 8 9 10 11 -12 13 14 15 -16 17 18 19 20 21 22 -23 -24 -25 26 27 28 29 -30 31 32 33 34 35 36 37 38 0
1 2 3 4 5 6 -7 8 9 10 11 -12 13 14 15 16 17 18 19 20 21 22 23 -24 -25 26 27 28 29 -30 31 32 33 34 35 36 -37 38 0
1 2 3 4 5 6 7 8 9 10 11 12 13 14 15 16 17 18 19 20 21 -22 23 24 25 26 -27 -28 29 30 31 32 33 -34 -35 36 37 -38 0
1 2 3 4 5 6 -7 8 9 10 -11 12 13 14 15 16 -17 18 19 20 21 22 23 24 25 26 27 28 -29 -30 31 32 33 -34 35 36 37 38 0
1 2 3 4 5 6 -7 8 9 10 -11 12 13 14 15 16 -17 18 19 20 21 22 23 24 25 26 27 -28 29 30 31 -32 33 34 35 36 37 -38 0
1 2 3 4 5 6 7 8 9 10 11 12 13 14 -15 -16 17 18 19 20 21 -22 23 24 25 -26 27 28 -29 30 31 32 33 34 35 36 -37 38 0
1 2 3 4 5 6 7 8 9 10 11 12 13 14 -15 -16 17 18 19 -20 21 -22 23 24 25 -26 27 28 29 30 31 32 33 34 35 36 37 -38 0
1 2 3 4 5 6 7 8 9 10 11 12 13 14 -15 -16 17 18 19 20 21 -22 23 -24 -25 -26 27 28 29 30 31 32 33 34 35 36 37 38 0
1 2 3 4 5 6 7 8 9 10 11 -12 13 14 15 16 -17 18 19 -20 21 22 23 -24 25 -26 27 28 -29 30 31 32 33 34 35 36 37 -38 0
1 2 3 4 5 6 7 8 9 10 11 -12 13 14 15 16 -17 18 19 -20 21 22 23 -24 25 -26 27 28 29 -30 31 32 33 34 35 36 37 38 0
1 2 3 4 5 6 7 8 9 10 11 12 13 14 -15 -16 17 18 19 -20 21 -22 23 -24 25 26 27 28 29 30 31 32 33 34 35 36 -37 38 0
1 2 3 4 5 6 -7 8 9 10 11 -12 13 14 15 16 17 18 19 20 21 22 23 -24 -25 26 27 28 29 -30 31 32 -33 34 35 36 37 -38 0
1 2 -3 -4 5 -6 7 8 9 10 11 12 13 14 15 16 17 18 19 20 21 22 23 -24 -25 26 27 28 -29 30 31 32 33 34 35 36 37 -38 0
1 2 3 4 5 6 -7 8 9 10 -11 12 13 14 15 16 -17 18 19 20 21 22 23 24 25 26 27 28 29 -30 31 32 33 -34 35 -36 37 38 0
1 2 3 4 5 6 -7 8 9 10 -11 12 13 14 15 16 -17 18 19 20 21 22 23 -24 -25 26 27 28 29 -30 31 32 33 34 35 36 37 38 0
1 2 3 4 5 6 7 8 9 10 11 -12 13 14 15 16 -17 18 19 20 21 22 23 24 25 -26 27 28 -29 30 -31 32 33 -34 35 36 37 38 0
1 2 3 4 5 6 -7 8 9 10 11 -12 13 14 15 16 17 18 19 20 21 22 23 -24 -25 26 27 28 29 -30 31 32 33 -34 35 36 37 38 0
1 2 3 4 5 6 -7 8 9 10 11 -12 13 14 15 16 17 18 19 20 21 22 23 24 25 -26 27 28 -29 30 -31 32 33 -34 35 36 37 38 0
1 2 3 4 5 6 7 8 9 10 11 -12 13 14 15 16 -17 18 19 20 21 22 23 -24 -25 26 27 28 29 -30 31 32 33 34 35 36 -37 38 0
1 2 -3 -4 5 -6 7 8 9 10 11 12 13 14 15 16 17 18 19 20 21 22 23 -24 -25 26 27 28 29 -30 31 32 33 34 35 36 37 38 0
1 2 3 4 5 6 -7 8 9 10 11 -12 13 14 15 16 17 18 19 -20 21 22 23 -24 25 -26 27 28 29 -30 31 32 33 34 35 36 37 38 0
1 2 3 4 5 6 7 8 9 10 11 12 13 14 15 16 17 18 19 -20 21 22 23 -24 25 -26 27 -28 29 -30 31 -32 33 34 35 36 37 38 0
1 2 3 4 5 6 7 8 9 10 11 12 13 14 -15 16 17 18 19 -20 21 -22 23 24 -25 -26 27 28 29 30 31 32 33 34 35 36 37 -38 0
1 2 -3 -4 5 -6 7 8 9 10 11 12 13 14 15 16 17 18 19 20 21 22 23 24 25 26 27 28 -29 -30 31 32 -33 34 35 36 37 -38 0
1 2 3 4 5 6 7 8 9 10 11 12 13 14 -15 16 17 18 19 -20 21 -22 23 24 25 -26 -27 28 29 30 31 32 33 34 35 36 37 -38 0
1 2 3 4 5 6 -7 8 9 10 11 -12 13 14 15 16 17 18 19 20 21 22 23 24 25 26 27 28 29 30 -31 32 33 -34 -35 36 37 -38 0
1 2 3 4 5 6 7 8 9 10 11 -12 13 14 15 16 -17 18 19 20 21 22 23 24 -25 -26 27 28 29 30 -31 32 -33 34 35 36 37 38 0
1 2 3 4 5 6 7 8 9 10 11 12 13 14 15 16 17 18 19 20 21 22 23 -24 -25 26 27 28 29 -30 31 -32 -33 34 -35 36 37 -38 0
1 2 3 4 5 6 -7 8 9 10 11 -12 13 14 15 16 17 18 19 20 21 22 -23 24 25 26 -27 28 29 30 31 -32 33 34 35 36 37 -38 0
1 2 3 4 5 6 7 8 9 10 11 12 13 14 15 16 17 18 19 20 -21 -22 23 24 -25 26 -27 28 29 30 31 -32 33 34 35 36 37 -38 0
1 2 3 4 5 6 7 8 9 10 11 12 13 14 -15 -16 17 18 19 -20 21 -22 23 24 -25 26 27 28 -29 30 31 32 33 34 35 36 37 38 0
1 2 3 4 5 6 7 8 9 10 11 -12 13 14 15 -16 17 18 19 20 21 22 -23 24 25 26 27 28 -29 -30 31 32 33 -34 35 36 37 38 0
1 2 3 4 5 6 7 8 9 10 11 12 13 14 -15 -16 17 18 19 -20 21 -22 23 -24 25 26 27 -28 29 30 31 32 33 34 35 36 37 38 0
1 2 3 4 5 6 -7 8 9 10 11 -12 13 14 15 16 17 18 19 20 21 22 23 24 -25 -26 27 28 29 -30 31 32 33 34 35 36 37 -38 0
1 2 3 4 5 6 7 8 9 10 11 -12 13 14 15 16 -17 18 19 20 21 22 23 24 -25 -26 27 28 29 -30 31 32 33 34 35 36 37 -38 0
1 2 -3 -4 5 -6 7 8 9 10 11 12 13 14 15 16 17 18 19 20 21 22 23 24 -25 26 27 28 29 -30 31 32 -33 34 35 36 37 38 0
1 2 3 4 5 6 7 8 9 10 11 -12 13 14 15 16 -17 18 19 20 21 22 23 24 25 26 27 28 29 30 -31 32 33 -34 -35 36 37 -38 0
1 2 3 4 5 6 -7 8 9 10 -11 12 13 14 15 16 -17 18 19 20 21 22 23 24 -25 26 27 28 29 -30 31 32 33 34 35 36 37 -38 0
1 2 3 4 5 6 -7 8 9 10 11 -12 13 14 15 16 17 18 19 20 21 22 23 24 -25 26 27 28 29 -30 31 32 33 -34 35 -36 37 38 0
1 2 3 4 5 6 7 8 9 10 11 -12 13 14 15 16 -17 18 19 20 21 22 23 -24 -25 26 27 28 29 -30 31 32 33 -34 35 36 37 38 0
1 2 3 4 5 6 -7 8 9 10 -11 12 13 14 15 16 -17 18 19 20 21 22 23 -24 -25 26 27 28 -29 30 31 32 33 34 35 36 37 -38 0
1 2 3 4 5 6 7 8 9 10 11 12 13 14 15 16 17 18 19 20 -21 -22 23 24 -25 26 -27 28 29 -30 31 32 33 34 35 36 37 -38 0
1 2 3 4 5 6 7 8 9 10 11 -12 13 14 15 -16 17 18 19 20 21 -22 23 24 -25 -26 27 28 29 30 31 32 33 34 35 36 37 -38 0
1 2 3 4 5 6 7 8 9 10 11 -12 13 14 15 -16 17 18 19 20 21 22 -23 24 -25 26 27 28 29 -30 31 32 33 34 35 36 37 -38 0
1 2 3 4 5 6 -7 8 9 10 11 -12 13 14 15 16 17 18 19 20 21 22 23 24 25 -26 27 28 -29 30 -31 32 -33 34 35 36 37 -38 0
1 2 3 4 5 6 7 8 9 10 11 12 13 14 15 16 17 18 19 20 21 22 23 24 -25 -26 27 -28 29 -30 31 -32 33 34 35 36 37 -38 0
1 2 3 4 5 6 7 8 9 10 11 -12 13 14 15 -16 17 18 19 20 21 22 -23 -24 -25 26 27 28 -29 30 31 32 33 34 35 36 37 -38 0
1 2 3 4 5 6 7 8 9 10 11 12 13 14 15 16 -17 18 19 20 21 22 -23 -24 -25 26 27 28 29 -30 31 32 -33 34 35 36 37 -38 0
1 2 3 4 5 6 7 8 9 10 11 12 13 14 15 16 -17 18 19 20 21 -22 23 24 25 -26 27 -28 29 -30 31 32 -33 34 35 36 37 38 0
1 2 3 4 5 6 7 8 9 10 11 -12 13 14 15 -16 17 18 19 20 21 22 -23 24 -25 26 27 28 29 -30 31 32 -33 34 35 36 37 38 0
1 2 3 4 5 6 7 8 9 10 11 12 13 14 15 16 17 18 19 20 21 22 23 24 -25 -26 27 28 29 30 -31 32 33 -34 -35 36 37 -38 0
1 2 3 4 5 6 7 8 9 10 11 -12 13 14 15 16 -17 18 19 20 21 22 23 24 25 -26 27 28 -29 30 -31 32 -33 34 35 36 37 -38 0
1 2 3 4 5 6 -7 8 9 10 11 -12 13 14 15 16 17 18 19 20 21 22 23 24 -25 -26 27 28 29 30 -31 32 -33 34 35 36 37 38 0
1 2 3 4 5 6 7 8 9 10 11 -12 13 14 15 16 -17 18 19 20 21 22 23 -24 -25 26 27 28 29 -30 31 32 -33 34 35 36 37 -38 0
1 2 3 4 5 6 -7 8 9 10 -11 12 13 14 15 16 -17 18 19 20 21 22 23 24 25 26 27 28 -29 -30 31 32 -33 34 35 36 37 -38 0
1 2 3 4 5 6 7 8 9 10 11 12 13 14 15 16 -17 18 19 20 21 22 -23 -24 -25 26 27 28 29 -30 31 32 33 -34 35 36 37 38 0
1 2 3 4 5 6 -7 8 9 10 -11 12 13 14 15 16 -17 18 19 20 21 22 23 24 -25 26 27 28 29 -30 31 32 -33 34 35 36 37 38 0
1 2 3 4 5 6 7 8 9 10 11 12 13 14 15 16 -17 18 19 20 21 22 -23 24 -25 26 27 28 29 -30 31 32 33 -34 35 -36 37 38 0
1 2 3 4 5 6 7 8 9 10 11 -12 13 14 15 -16 17 18 19 20 21 22 -23 24 25 26 27 28 29 -30 31 32 33 -34 35 -36 37 38 0
1 2 3 4 5 6 7 8 9 10 11 -12 13 14 15 -16 17 18 19 20 21 22 -23 24 25 26 27 28 -29 -30 31 32 -33 34 35 36 37 -38 0
1 2 3 4 5 6 7 8 9 10 11 12 13 14 15 16 17 18 19 -20 -21 22 23 -24 25 -26 27 28 -29 30 31 32 33 34 35 36 -37 38 0
1 -2 -3 4 5 -6 7 8 9 10 11 -12 13 14 15 16 17 18 19 20 21 22 23 24 25 26 27 28 29 30 31 32 33 34 35 36 -37 38 0
1 2 -3 -4 5 -6 7 8 9 10 11 12 13 14 15 16 17 18 19 20 21 22 23 24 25 26 27 28 29 -30 31 32 33 -34 35 36 37 38 0
1 2 -3 -4 5 -6 7 8 9 10 11 -12 13 14 15 16 17 18 19 20 21 22 23 24 25 26 27 28 29 30 31 32 33 34 35 36 -37 38 0
1 2 3 4 5 6 7 8 9 10 11 12 13 14 15 16 -17 18 19 20 21 22 -23 24 25 26 27 28 29 30 31 -32 33 -34 35 36 -37 38 0
1 2 3 4 5 6 -7 8 9 10 11 -12 13 14 15 16 17 18 19 20 21 22 23 24 -25 26 27 28 29 -30 31 32 -33 34 35 36 37 -38 0
1 2 3 4 5 6 7 8 9 10 11 12 13 14 15 16 17 18 19 20 21 22 23 24 25 -26 27 28 -29 30 -31 32 33 -34 -35 36 37 -38 0
1 2 3 4 5 6 -7 8 9 10 11 -12 13 14 15 16 17 18 19 -20 21 22 23 -24 25 -26 27 28 -29 30 31 32 33 34 35 36 37 38 0
1 2 -3 -4 5 -6 7 8 9 10 11 12 13 14 15 16 17 18 19 20 21 22 23 24 25 26 27 28 29 30 31 -32 33 34 -35 36 37 38 0
1 2 3 4 5 6 7 8 9 10 11 12 13 14 15 16 17 -18 -19 -20 21 22 23 24 25 -26 27 28 29 -30 31 32 33 34 35 36 37 -38 0
1 2 3 4 5 6 7 8 9 10 11 12 13 14 -15 16 17 18 19 -20 21 -22 23 -24 25 -26 27 28 -29 30 31 32 33 34 35 36 37 38 0
1 2 -3 -4 5 -6 7 8 9 10 11 12 13 14 15 16 17 18 19 20 21 22 23 -24 -25 26 27 28 -29 30 31 32 33 34 35 36 37 38 0
1 2 3 4 5 6 7 8 9 10 11 12 13 14 15 16 17 18 19 -20 21 22 23 -24 25 -26 27 28 -29 30 -31 32 33 -34 35 36 37 38 0
1 2 3 4 5 6 -7 8 9 10 -11 12 13 14 15 -16 17 18 19 20 21 22 -23 24 25 26 27 28 29 30 31 32 33 34 35 36 -37 38 0
1 2 3 4 5 6 -7 8 9 10 11 -12 13 14 15 16 17 18 19 20 21 22 23 24 25 26 27 -28 29 30 31 -32 33 34 35 36 -37 38 0
1 2 3 4 5 6 -7 8 9 10 11 -12 13 14 15 16 17 18 19 20 21 22 23 -24 -25 26 27 28 -29 30 31 32 33 34 35 36 -37 38 0
1 2 3 4 5 6 -7 8 9 10 11 -12 13 14 15 16 17 18 19 20 21 22 23 24 25 26 27 -28 29 30 -31 32 33 34 -35 36 37 38 0
1 2 -3 -4 5 -6 7 8 9 10 11 12 13 14 15 16 17 18 19 20 21 22 23 24 25 26 27 -28 29 30 31 -32 33 34 35 36 37 38 0
1 2 3 4 5 6 7 8 9 10 11 -12 13 14 15 16 -17 18 19 -20 21 22 23 -24 25 -26 27 28 -29 30 31 32 33 34 35 36 37 38 0
1 2 3 4 5 6 -7 8 9 10 11 -12 13 14 15 16 17 18 19 20 21 22 -23 24 25 26 27 -28 29 30 31 32 33 34 35 36 -37 38 0
1 2 3 4 5 6 -7 8 9 10 11 -12 13 14 15 16 17 18 19 20 21 22 23 -24 -25 26 27 28 29 -30 31 32 33 34 35 36 37 -38 0
1 2 -3 -4 5 -6 7 8 9 10 11 12 13 14 15 16 17 18 19 20 21 22 -23 24 25 26 27 -28 29 30 31 32 33 34 35 36 37 38 0
1 2 3 4 5 6 -7 8 9 10 -11 12 13 14 15 16 -17 18 19 20 21 22 23 24 -25 26 27 28 29 -30 31 32 33 34 35 36 37 38 0
1 2 3 4 5 6 -7 8 9 10 11 -12 13 14 15 16 17 18 19 20 21 22 -23 24 25 26 -27 28 29 30 31 -32 33 34 35 36 37 38 0
1 2 3 4 5 6 -7 8 9 10 11 -12 13 14 15 16 17 18 19 20 21 22 23 24 25 -26 27 28 -29 30 -31 32 -33 34 35 36 37 38 0
1 2 3 4 5 6 7 8 9 10 11 12 13 14 15 16 17 -18 -19 -20 21 22 23 24 25 -26 27 28 -29 30 31 32 33 34 35 36 -37 38 0
1 2 -3 -4 5 -6 7 8 9 10 11 12 13 14 15 16 17 18 19 20 21 22 23 24 25 26 27 28 29 30 31 32 -33 -34 35 -36 37 38 0
1 2 3 4 5 6 7 8 9 10 11 -12 13 14 15 16 -17 18 19 20 21 22 23 24 25 26 27 -28 29 30 31 -32 33 34 35 36 -37 38 0
1 2 3 4 5 6 7 8 9 10 11 -12 13 14 15 -16 17 18 19 20 21 22 -23 -24 -25 26 27 28 -29 30 31 32 33 34 35 36 37 38 0
1 2 3 4 5 6 -7 8 9 10 11 -12 13 14 15 16 17 18 19 20 21 22 23 24 25 26 27 28 29 30 31 -32 33 -34 35 36 -37 38 0
1 2 3 4 5 6 7 8 9 10 11 -12 13 14 15 16 -17 18 19 20 21 22 23 24 -25 26 27 28 29 -30 31 32 33 34 35 36 -37 38 0
1 2 -3 -4 5 -6 7 8 9 10 11 12 13 14 15 16 17 18 19 20 21 22 23 24 25 26 27 28 -29 -30 31 32 -33 34 35 36 37 38 0
1 2 -3 -4 5 -6 7 8 9 10 11 12 13 14 15 16 17 18 19 20 21 22 23 24 -25 26 27 28 29 -30 31 32 33 34 35 36 37 38 0
1 2 3 4 5 6 -7 8 9 10 11 -12 13 14 15 16 17 18 19 20 21 22 23 -24 -25 26 27 28 29 -30 31 32 -33 34 35 36 37 38 0
1 2 3 4 5 6 7 8 9 10 11 12 13 14 15 16 17 18 19 20 21 22 -23 -24 -25 26 27 -28 -29 30 31 32 33 34 35 36 -37 38 0
1 2 3 4 5 6 7 8 9 10 11 12 13 14 -15 16 17 18 19 -20 21 -22 23 24 25 -26 -27 28 29 30 31 32 33 34 35 36 37 38 0
1 2 3 4 5 6 7 8 9 10 11 -12 13 14 15 16 -17 18 19 20 21 22 23 24 -25 26 27 28 29 -30 31 32 -33 34 35 36 37 -38 0
1 2 3 4 5 6 -7 8 9 10 11 -12 13 14 15 16 17 18 19 20 21 22 23 24 25 26 27 28 -29 -30 31 32 33 -34 35 -36 37 38 0
1 2 3 4 5 6 7 8 9 10 11 -12 13 14 15 16 -17 18 19 20 21 22 23 24 25 26 27 28 -29 -30 31 32 33 -34 35 -36 37 38 0
1 2 3 4 5 6 7 8 9 10 11 12 13 14 15 16 17 18 19 20 21 22 -23 24 25 26 27 -28 29 30 31 32 -33 -34 -35 36 37 -38 0
1 2 3 4 5 6 7 8 9 10 11 12 13 14 -15 -16 17 18 19 -20 21 -22 23 24 25 -26 27 28 29 30 31 32 33 34 35 36 37 38 0
1 2 3 4 5 6 7 8 9 10 11 12 13 14 15 16 17 18 19 20 21 22 23 24 -25 26 27 28 29 -30 31 -32 -33 34 -35 36 37 -38 0
1 2 3 4 5 6 7 8 9 10 11 -12 13 14 15 16 -17 18 19 20 21 22 23 24 25 26 27 -28 29 30 -31 32 33 34 -35 36 37 38 0
1 2 3 4 5 6 -7 8 9 10 -11 12 13 14 15 16 -17 18 19 20 21 22 23 24 25 26 27 28 29 -30 31 32 33 -34 35 36 37 38 0
1 2 3 4 5 6 7 8 9 10 11 12 13 14 15 16 -17 18 19 20 21 -22 23 24 25 26 -27 28 29 30 31 -32 33 34 35 36 -37 38 0
1 2 3 4 5 6 -7 8 9 10 11 -12 13 14 15 16 17 18 19 20 21 22 23 24 -25 -26 27 28 29 -30 31 32 33 34 35 36 37 38 0
1 2 3 4 5 6 7 8 9 10 11 12 13 14 -15 16 17 18 19 -20 21 -22 23 24 -25 -26 27 28 29 30 31 32 33 34 35 36 37 38 0
1 2 3 4 5 6 7 8 9 10 11 -12 13 14 15 -16 17 18 19 20 21 -22 23 24 -25 -26 27 28 29 30 31 32 33 34 35 36 37 38 0
1 2 3 4 5 6 7 8 9 10 11 12 13 14 15 16 17 18 19 20 21 22 23 24 -25 -26 27 28 29 30 -31 32 33 -34 35 36 -37 38 0
1 2 3 4 5 6 7 8 9 10 11 -12 13 14 15 -16 17 18 19 20 21 22 -23 24 -25 26 27 28 29 -30 31 32 33 34 35 36 37 38 0
1 2 3 4 5 6 7 8 9 10 11 12 13 14 -15 -16 17 18 19 20 21 -22 23 24 25 -26 27 28 -29 30 31 32 33 34 35 36 37 -38 0
1 2 3 4 5 6 7 8 9 10 11 12 13 14 15 16 17 18 19 20 -21 -22 23 24 25 -26 -27 28 29 30 31 32 33 34 35 36 -37 38 0
1 2 3 4 5 6 7 8 9 10 11 12 13 14 15 16 17 18 19 20 21 22 23 24 -25 -26 27 28 29 30 -31 32 -33 34 35 -36 -37 38 0
1 2 3 4 5 6 -7 8 9 10 11 -12 13 14 15 16 17 18 19 20 21 22 23 24 25 26 27 28 29 -30 -31 32 33 -34 35 36 37 38 0
1 2 3 4 5 6 7 8 9 10 11 -12 13 14 15 -16 17 18 19 20 21 -22 23 24 25 26 27 -28 29 30 31 32 33 34 35 36 -37 38 0
1 2 3 4 5 6 7 8 9 10 11 -12 13 14 15 16 -17 18 19 20 21 22 23 -24 -25 26 27 28 29 -30 31 32 33 34 35 36 37 -38 0
1 2 3 4 5 6 -7 8 9 10 -11 12 13 14 15 16 -17 18 19 20 21 22 23 24 25 26 27 28 29 30 31 32 -33 -34 35 -36 37 38 0
1 2 3 4 5 6 7 8 9 10 11 12 13 14 15 16 17 18 19 20 21 22 23 24 -25 -26 27 -28 29 -30 31 -32 33 34 35 36 37 38 0
1 2 3 4 5 6 7 8 9 10 11 -12 13 14 15 16 -17 18 19 20 21 22 23 24 -25 26 27 28 29 -30 31 32 33 -34 35 36 37 38 0
1 2 3 4 5 6 7 8 9 10 11 -12 13 14 15 -16 17 18 19 20 21 22 -23 24 25 26 27 28 29 30 31 -32 33 34 -35 36 37 38 0
1 2 3 4 5 6 7 8 9 10 11 12 13 14 15 16 17 18 19 20 21 22 23 -24 -25 26 27 -28 -29 30 31 -32 33 34 35 36 -37 38 0
1 2 3 4 5 6 7 8 9 10 11 -12 13 14 15 16 -17 18 19 20 21 22 23 24 25 26 27 28 29 -30 -31 32 33 -34 35 36 37 38 0
1 2 3 4 5 6 7 8 9 10 11 -12 13 14 15 16 -17 18 19 20 21 22 23 24 -25 -26 27 28 29 -30 31 32 33 34 35 36 37 38 0
1 2 3 4 5 6 -7 8 9 10 11 -12 13 14 15 16 17 18 19 20 21 22 23 24 25 26 27 -28 29 30 -31 32 33 -34 35 36 37 38 0
1 2 3 4 5 6 7 8 9 10 11 -12 13 14 15 16 -17 18 19 20 21 22 23 24 25 26 27 -28 29 30 -31 32 33 -34 35 36 37 38 0
1 2 3 4 5 6 7 8 9 10 11 -12 13 14 15 16 -17 18 19 20 21 22 23 24 25 -26 27 28 -29 30 -31 32 -33 34 35 36 37 38 0
1 2 3 4 5 6 7 8 9 10 11 -12 13 14 15 16 -17 18 19 20 21 22 23 24 25 26 27 28 29 30 31 -32 33 -34 35 36 -37 38 0
1 2 3 4 5 6 -7 8 9 10 -11 12 13 14 15 16 -17 18 19 20 21 22 23 -24 -25 26 27 28 -29 30 31 32 33 34 35 36 37 38 0
1 2 3 4 5 6 7 8 9 10 11 12 13 14 -15 16 17 18 19 -20 21 -22 23 24 25 -26 27 28 29 30 31 32 33 34 35 36 -37 38 0
1 2 3 4 5 6 7 8 9 10 11 12 13 14 15 16 17 18 19 20 -21 22 23 24 -25 26 -27 28 29 -30 31 32 33 34 35 36 -37 38 0
1 2 3 4 5 6 -7 8 9 10 11 -12 13 14 15 16 17 18 19 20 21 22 23 24 -25 26 27 28 29 -30 31 32 33 -34 35 36 37 38 0
1 2 3 4 5 6 7 8 9 10 11 12 13 14 15 16 -17 18 19 20 21 22 -23 -24 -25 26 27 28 29 -30 31 32 -33 34 35 36 37 38 0
1 2 3 4 5 6 7 8 9 10 11 12 13 14 15 16 17 18 19 20 -21 -22 23 24 -25 26 -27 28 29 30 31 -32 33 34 35 36 37 38 0
1 2 3 4 5 6 -7 8 9 10 -11 12 13 14 15 16 -17 18 19 20 21 22 23 24 25 26 27 -28 29 30 31 -32 33 34 35 36 37 38 0
1 2 3 4 5 6 -7 8 9 10 11 -12 13 14 15 16 17 18 19 20 21 22 23 24 -25 26 27 28 29 -30 31 32 33 34 35 36 -37 38 0
1 2 3 4 5 6 7 8 9 10 11 -12 13 14 15 16 -17 18 19 20 21 22 23 -24 -25 26 27 28 -29 30 31 32 33 34 35 36 -37 38 0
1 2 3 4 5 6 7 8 9 10 11 12 13 14 15 16 17 18 19 20 -21 -22 23 24 25 26 -27 28 29 -30 31 32 33 34 35 36 -37 38 0
1 2 3 4 5 6 -7 8 9 10 -11 12 13 14 15 16 -17 18 19 20 21 22 23 24 25 26 27 28 29 30 31 -32 33 34 -35 36 37 38 0
1 2 3 4 5 6 7 8 9 10 11 -12 13 14 15 -16 17 18 19 20 21 22 -23 24 25 26 27 28 29 30 31 32 -33 -34 35 -36 37 38 0
1 2 3 4 5 6 7 8 9 10 11 12 13 14 -15 -16 17 18 19 -20 21 -22 23 -24 25 26 27 28 29 30 31 32 33 34 35 36 37 -38 0
1 2 3 4 5 6 7 8 9 10 11 12 13 14 -15 -16 17 18 19 20 -21 -22 23 24 25 26 27 28 29 30 31 32 33 34 35 36 -37 38 0
1 2 3 4 5 6 7 8 9 10 11 12 13 14 15 16 -17 18 19 20 21 22 -23 -24 -25 26 27 28 29 -30 31 32 33 34 35 36 37 -38 0
1 2 3 4 5 6 7 8 9 10 11 12 13 14 15 16 -17 18 19 20 21 22 -23 24 -25 26 27 28 29 -30 31 32 -33 34 35 36 37 -38 0
1 2 3 4 5 6 7 8 9 10 11 12 13 14 15 16 17 18 19 20 -21 -22 23 24 -25 26 -27 28 29 30 31 32 33 34 35 36 -37 38 0
1 2 3 4 5 6 -7 8 9 10 -11 12 13 14 15 16 -17 18 19 20 21 22 23 24 25 26 27 28 -29 -30 31 32 -33 34 35 36 37 38 0
1 2 3 4 5 6 7 8 9 10 11 12 13 14 15 16 -17 18 19 20 21 22 -23 -24 -25 26 27 28 -29 30 31 32 33 34 35 36 -37 38 0
1 2 3 4 5 6 7 8 9 10 11 12 13 14 15 16 17 18 19 20 -21 -22 23 24 -25 26 -27 28 29 -30 31 32 33 34 35 36 37 38 0
1 2 3 4 5 6 7 8 9 10 11 -12 13 14 15 -16 17 18 19 20 21 22 -23 24 25 26 27 28 29 -30 31 32 33 -34 35 36 37 38 0
1 2 3 4 5 6 7 8 9 10 11 -12 13 14 15 16 -17 18 19 20 21 22 23 -24 -25 26 27 28 29 -30 31 32 -33 34 35 36 37 38 0
1 2 3 4 5 6 7 8 9 10 11 -12 13 14 15 -16 17 18 19 20 21 22 -23 24 25 26 27 28 -29 -30 31 32 -33 34 35 36 37 38 0
1 2 3 4 5 6 7 8 9 10 11 12 13 14 15 16 -17 18 19 20 21 22 -23 24 -25 26 27 28 29 -30 31 32 33 34 35 36 -37 38 0
1 2 3 4 5 6 7 8 9 10 11 12 13 14 15 16 -17 18 19 20 21 22 -23 24 25 26 27 28 -29 -30 31 32 33 -34 35 -36 37 38 0
1 2 3 4 5 6 7 8 9 10 11 12 13 14 15 16 -17 18 19 20 21 22 -23 24 -25 26 27 28 29 -30 31 32 33 -34 35 36 37 38 0
1 -2 -3 4 5 -6 7 8 9 10 11 -12 13 14 15 16 17 18 19 20 21 22 23 24 25 26 27 28 29 30 31 32 33 34 35 36 37 -38 0
1 2 3 4 5 6 -7 8 9 10 -11 12 13 14 15 -16 17 18 19 20 21 22 -23 24 25 26 27 28 29 30 31 32 33 34 35 36 37 -38 0
1 2 -3 -4 5 -6 7 8 9 10 11 -12 13 14 15 16 17 18 19 20 21 22 23 24 25 26 27 28 29 30 31 32 33 34 35 36 37 -38 0
1 2 3 4 5 6 -7 8 9 10 11 -12 13 14 15 16 17 18 19 20 21 22 -23 24 25 26 27 -28 29 30 31 32 33 34 35 36 37 -38 0
1 2 3 4 5 6 7 8 9 10 11 12 13 14 -15 -16 17 18 19 20 21 -22 23 24 25 -26 27 28 -29 30 31 32 33 34 35 36 37 38 0
1 2 3 4 5 6 7 8 9 10 11 12 13 14 15 16 17 18 19 -20 -21 22 23 -24 25 -26 27 28 -29 30 31 32 33 34 35 36 37 -38 0
1 2 3 4 5 6 7 8 9 10 11 -12 13 14 15 16 -17 18 19 20 21 22 23 24 -25 26 27 28 29 -30 31 32 33 34 35 36 37 -38 0
1 2 3 4 5 6 -7 8 9 10 11 -12 13 14 15 16 17 18 19 20 21 22 23 24 25 26 27 -28 29 30 31 -32 33 34 35 36 37 -38 0
1 2 3 4 5 6 7 8 9 10 11 -12 13 14 15 -16 17 18 19 20 21 -22 23 24 25 26 27 -28 29 30 31 32 33 34 35 36 37 -38 0
1 2 3 4 5 6 7 8 9 10 11 -12 13 14 15 16 -17 18 19 20 21 22 23 24 25 26 27 28 -29 -30 31 32 -33 34 35 36 37 -38 0
1 2 3 4 5 6 -7 8 9 10 11 -12 13 14 15 16 17 18 19 20 21 22 23 -24 -25 26 27 28 -29 30 31 32 33 34 35 36 37 -38 0
1 2 3 4 5 6 7 8 9 10 11 12 13 14 15 16 -17 18 19 20 21 22 -23 24 25 26 27 28 29 -30 31 32 33 -34 35 -36 37 38 0
1 2 3 4 5 6 7 8 9 10 11 12 13 14 15 16 17 -18 -19 -20 21 22 23 24 25 -26 27 28 -29 30 31 32 33 34 35 36 37 -38 0
1 2 3 4 5 6 -7 8 9 10 11 -12 13 14 15 16 17 18 19 20 21 22 23 24 25 26 27 28 29 -30 31 32 33 -34 35 -36 37 38 0
1 2 3 4 5 6 7 8 9 10 11 -12 13 14 15 16 -17 18 19 20 21 22 23 24 25 26 27 -28 29 30 31 -32 33 34 35 36 37 -38 0
1 2 3 4 5 6 -7 8 9 10 11 -12 13 14 15 16 17 18 19 20 21 22 23 24 -25 26 27 28 29 -30 31 32 33 34 35 36 37 -38 0
1 2 3 4 5 6 7 8 9 10 11 12 13 14 15 16 17 18 19 20 21 22 23 24 25 26 27 -28 29 30 -31 32 33 -34 -35 36 37 -38 0
1 2 3 4 5 6 -7 8 9 10 11 -12 13 14 15 16 17 18 19 20 21 22 23 24 25 26 27 28 -29 -30 31 32 33 -34 35 36 37 38 0
1 2 3 4 5 6 7 8 9 10 11 12 13 14 15 16 17 18 19 20 -21 -22 23 24 25 -26 -27 28 29 30 31 32 33 34 35 36 37 -38 0
1 2 3 4 5 6 7 8 9 10 11 12 13 14 15 16 17 18 19 -20 21 22 23 -24 25 -26 27 28 29 -30 31 32 33 34 35 36 -37 38 0
1 2 3 4 5 6 7 8 9 10 11 12 13 14 15 16 17 -18 -19 -20 21 22 23 24 25 -26 27 28 29 -30 31 32 33 34 35 36 37 38 0
1 2 3 4 5 6 -7 8 9 10 11 -12 13 14 15 16 17 18 19 20 21 22 23 24 -25 26 27 28 29 -30 31 32 -33 34 35 36 37 38 0
1 2 3 4 5 6 -7 8 9 10 11 -12 13 14 15 16 17 18 19 20 21 22 23 -24 -25 26 27 28 29 -30 31 32 33 34 35 36 37 38 0
1 2 3 4 5 6 7 8 9 10 11 -12 13 14 15 16 -17 18 19 20 21 22 23 -24 -25 26 27 28 29 -30 31 32 33 34 35 36 37 38 0
1 2 3 4 5 6 7 8 9 10 11 -12 13 14 15 16 -17 18 19 20 21 22 23 24 25 26 27 28 29 -30 31 32 33 -34 35 -36 37 38 0
1 2 3 4 5 6 7 8 9 10 11 12 13 14 -15 -16 17 18 19 20 -21 -22 23 24 25 26 27 28 29 30 31 32 33 34 35 36 37 -38 0
1 2 3 4 5 6 7 8 9 10 11 12 13 14 15 16 17 18 19 20 21 22 23 24 25 -26 27 28 -29 30 -31 32 33 -34 35 36 -37 38 0
1 2 3 4 5 6 7 8 9 10 11 -12 13 14 15 16 -17 18 19 20 21 22 23 24 25 26 27 28 -29 -30 31 32 33 -34 35 36 37 38 0
1 2 3 4 5 6 7 8 9 10 11 12 13 14 15 16 17 18 19 20 21 22 23 24 25 -26 -27 28 -29 30 -31 32 -33 34 35 36 37 -38 0
1 2 3 4 5 6 7 8 9 10 11 12 13 14 15 16 -17 18 19 20 21 22 -23 24 25 26 27 28 -29 -30 31 32 33 -34 35 36 37 38 0
1 2 3 4 5 6 -7 8 9 10 11 -12 13 14 15 16 17 18 19 20 21 22 23 24 25 26 27 28 -29 -30 31 32 -33 34 35 36 37 -38 0
1 2 3 4 5 6 7 8 9 10 11 12 13 14 15 16 17 18 19 20 -21 -22 23 24 -25 26 -27 28 29 30 31 32 33 34 35 36 37 -38 0
1 2 3 4 5 6 7 8 9 10 11 12 13 14 15 16 -17 18 19 20 21 -22 23 24 25 26 -27 28 29 30 31 -32 33 34 35 36 37 -38 0
1 2 3 4 5 6 7 8 9 10 11 12 13 14 15 16 17 18 19 20 -21 -22 23 24 25 26 -27 28 29 -30 31 32 33 34 35 36 37 -38 0
1 2 3 4 5 6 7 8 9 10 11 12 13 14 15 16 -17 18 19 20 21 22 -23 24 25 26 27 28 -29 -30 31 32 -33 34 35 36 37 -38 0
1 2 3 4 5 6 7 8 9 10 11 12 13 14 -15 16 17 18 19 -20 21 -22 23 24 25 -26 27 28 29 30 31 32 33 34 35 36 37 -38 0
1 2 3 4 5 6 7 8 9 10 11 12 13 14 15 16 -17 18 19 20 21 22 -23 24 -25 26 27 28 29 -30 31 32 -33 34 35 36 37 38 0
1 2 3 4 5 6 7 8 9 10 11 12 13 14 -15 -16 17 18 19 -20 21 -22 23 -24 25 26 27 28 29 30 31 32 33 34 35 36 37 38 0
1 2 3 4 5 6 7 8 9 10 11 -12 13 14 15 16 -17 18 19 20 21 22 23 -24 -25 26 27 28 -29 30 31 32 33 34 35 36 37 -38 0
1 2 3 4 5 6 7 8 9 10 11 -12 13 14 15 16 -17 18 19 20 21 22 23 24 -25 26 27 28 29 -30 31 32 -33 34 35 36 37 38 0
1 2 3 4 5 6 7 8 9 10 11 12 13 14 15 16 -17 18 19 20 21 22 -23 24 -25 26 27 28 29 -30 31 32 33 34 35 36 37 -38 0
1 2 3 4 5 6 7 8 9 10 11 12 13 14 15 16 17 18 19 20 21 22 23 24 25 26 27 28 -29 -30 31 -32 -33 34 -35 36 37 -38 0
1 2 3 4 5 6 7 8 9 10 11 12 13 14 15 16 17 18 19 20 21 22 -23 -24 -25 26 27 -28 -29 30 31 32 33 34 35 36 37 -38 0
1 2 3 4 5 6 7 8 9 10 11 12 13 14 15 16 -17 18 19 20 21 22 -23 -24 -25 26 27 28 -29 30 31 32 33 34 35 36 37 -38 0
1 2 3 4 5 6 7 8 9 10 11 12 13 14 15 16 17 18 19 20 -21 22 23 24 -25 26 -27 28 29 -30 31 32 33 34 35 36 37 -38 0
1 2 3 4 5 6 7 8 9 10 11 12 13 14 15 16 -17 18 19 20 21 22 -23 -24 -25 26 27 28 29 -30 31 32 33 34 35 36 37 38 0
1 2 3 4 5 6 7 8 9 10 11 12 13 14 15 16 17 18 19 20 21 22 23 -24 -25 26 27 -28 -29 30 31 -32 33 34 35 36 37 -38 0
1 2 3 4 5 6 7 8 9 10 11 12 13 14 -15 16 17 18 19 -20 21 -22 23 24 25 -26 27 28 29 30 31 32 33 34 35 36 37 38 0
1 2 3 4 5 6 7 8 9 10 11 12 13 14 15 16 17 18 19 20 21 22 23 24 -25 -26 27 28 29 -30 31 32 33 34 35 36 -37 38 0
1 2 3 4 5 6 7 8 9 10 11 12 13 14 15 16 -17 18 19 20 21 -22 23 24 25 26 27 -28 29 30 31 32 33 34 35 36 -37 38 0
1 2 -3 -4 5 -6 7 8 9 10 11 12 13 14 15 16 17 18 19 20 21 22 23 24 25 26 27 28 29 30 31 32 33 34 35 36 -37 38 0
1 -2 -3 4 5 -6 7 8 9 10 11 -12 13 14 15 16 17 18 19 20 21 22 23 24 25 26 27 28 29 30 31 32 33 34 35 36 37 38 0
1 2 3 4 5 6 -7 8 9 10 -11 12 13 14 15 16 -17 18 19 20 21 22 23 24 25 26 27 28 29 30 31 32 33 34 35 36 -37 38 0
1 2 3 4 5 6 -7 8 9 10 11 -12 13 14 15 16 17 18 19 20 21 22 -23 24 25 26 27 -28 29 30 31 32 33 34 35 36 37 38 0
1 2 3 4 5 6 7 8 9 10 11 12 13 14 15 16 17 18 19 20 21 22 23 -24 -25 26 27 28 -29 30 31 -32 33 34 -35 36 37 38 0
1 2 3 4 5 6 7 8 9 10 11 12 13 14 15 16 17 -18 -19 -20 21 22 23 24 25 -26 27 28 -29 30 31 32 33 34 35 36 37 38 0
1 2 -3 -4 5 -6 7 8 9 10 11 -12 13 14 15 16 17 18 19 20 21 22 23 24 25 26 27 28 29 30 31 32 33 34 35 36 37 38 0
1 2 3 4 5 6 -7 8 9 10 11 -12 13 14 15 16 17 18 19 20 21 22 23 24 25 26 27 28 29 30 31 -32 33 34 -35 36 37 38 0
1 2 3 4 5 6 7 8 9 10 11 12 13 14 15 16 -17 18 19 20 21 22 -23 24 25 26 27 28 29 30 31 -32 33 34 -35 36 37 38 0
1 2 3 4 5 6 7 8 9 10 11 -12 13 14 15 -16 17 18 19 20 21 22 -23 24 25 26 27 28 29 30 31 32 33 34 35 36 -37 38 0
1 2 3 4 5 6 7 8 9 10 11 12 13 14 15 16 17 18 19 20 21 22 23 24 25 26 27 -28 29 30 -31 32 33 -34 35 36 -37 38 0
1 2 3 4 5 6 7 8 9 10 11 -12 13 14 15 -16 17 18 19 20 21 -22 23 24 25 26 27 -28 29 30 31 32 33 34 35 36 37 38 0
1 2 3 4 5 6 7 8 9 10 11 12 13 14 15 16 17 18 19 20 21 22 23 24 -25 -26 27 28 29 30 -31 32 -33 34 35 36 37 -38 0
1 2 3 4 5 6 7 8 9 10 11 -12 13 14 15 16 -17 18 19 20 21 22 23 24 25 26 27 28 29 30 31 -32 33 34 -35 36 37 38 0
1 2 3 4 5 6 7 8 9 10 11 12 13 14 15 16 17 18 19 -20 -21 22 23 -24 25 -26 27 28 -29 30 31 32 33 34 35 36 37 38 0
1 2 3 4 5 6 7 8 9 10 11 12 13 14 15 16 17 18 19 -20 21 22 23 -24 25 -26 27 28 -29 30 31 32 33 34 35 36 -37 38 0
1 2 3 4 5 6 7 8 9 10 11 -12 13 14 15 16 -17 18 19 20 21 22 23 24 25 26 27 -28 29 30 31 -32 33 34 35 36 37 38 0
1 2 3 4 5 6 7 8 9 10 11 12 13 14 15 16 17 18 19 -20 21 22 23 -24 25 -26 27 28 29 -30 31 32 33 34 35 36 37 -38 0
1 2 3 4 5 6 7 8 9 10 11 -12 13 14 15 16 -17 18 19 20 21 22 23 -24 -25 26 27 28 -29 30 31 32 33 34 35 36 37 38 0
1 2 3 4 5 6 7 8 9 10 11 12 13 14 15 16 17 18 19 20 21 22 -23 24 25 26 -27 28 29 30 31 -32 33 34 35 36 -37 38 0
1 2 3 4 5 6 -7 8 9 10 11 -12 13 14 15 16 17 18 19 20 21 22 23 24 25 26 27 -28 29 30 31 -32 33 34 35 36 37 38 0
1 2 3 4 5 6 7 8 9 10 11 12 13 14 15 16 -17 18 19 20 21 -22 23 24 25 26 -27 28 29 30 31 -32 33 34 35 36 37 38 0
1 2 3 4 5 6 7 8 9 10 11 12 13 14 15 16 -17 18 19 20 21 22 -23 24 25 26 27 28 29 30 31 32 -33 -34 35 -36 37 38 0
1 2 3 4 5 6 -7 8 9 10 11 -12 13 14 15 16 17 18 19 20 21 22 23 -24 -25 26 27 28 -29 30 31 32 33 34 35 36 37 38 0
1 2 3 4 5 6 7 8 9 10 11 12 13 14 15 16 17 18 19 20 21 22 -23 24 25 26 -27 28 29 30 -31 32 33 34 -35 36 37 38 0
1 2 3 4 5 6 7 8 9 10 11 12 13 14 15 16 -17 18 19 20 21 22 -23 -24 -25 26 27 28 -29 30 31 32 33 34 35 36 37 38 0
1 2 3 4 5 6 7 8 9 10 11 12 13 14 15 16 17 18 19 20 21 22 23 24 -25 -26 27 28 29 30 -31 32 33 -34 35 36 37 38 0
1 2 3 4 5 6 7 8 9 10 11 -12 13 14 15 16 -17 18 19 20 21 22 23 24 25 26 27 28 29 30 31 32 -33 -34 35 -36 37 38 0
1 2 3 4 5 6 7 8 9 10 11 12 13 14 15 16 17 18 19 20 21 22 -23 -24 -25 26 27 -28 -29 30 31 32 33 34 35 36 37 38 0
1 2 3 4 5 6 7 8 9 10 11 12 13 14 15 16 17 18 19 20 21 22 23 -24 -25 26 27 -28 -29 30 31 -32 33 34 35 36 37 38 0
1 2 3 4 5 6 7 8 9 10 11 12 13 14 15 16 17 18 19 20 -21 -22 23 24 25 -26 -27 28 29 30 31 32 33 34 35 36 37 38 0
1 2 3 4 5 6 7 8 9 10 11 12 13 14 15 16 17 18 19 20 21 22 23 24 25 -26 -27 28 -29 30 -31 32 -33 34 35 36 37 38 0
1 2 3 4 5 6 7 8 9 10 11 -12 13 14 15 16 -17 18 19 20 21 22 23 24 -25 26 27 28 29 -30 31 32 33 34 35 36 37 38 0
1 2 3 4 5 6 -7 8 9 10 -11 12 13 14 15 -16 17 18 19 20 21 22 -23 24 25 26 27 28 29 30 31 32 33 34 35 36 37 38 0
1 2 3 4 5 6 -7 8 9 10 11 -12 13 14 15 16 17 18 19 20 21 22 23 24 25 26 27 28 -29 -30 31 32 -33 34 35 36 37 38 0
1 2 3 4 5 6 -7 8 9 10 11 -12 13 14 15 16 17 18 19 20 21 22 23 24 -25 26 27 28 29 -30 31 32 33 34 35 36 37 38 0
1 2 3 4 5 6 7 8 9 10 11 12 13 14 15 16 -17 18 19 20 21 22 -23 24 25 26 27 28 29 -30 31 32 33 -34 35 36 37 38 0
1 2 3 4 5 6 -7 8 9 10 11 -12 13 14 15 16 17 18 19 20 21 22 23 24 25 26 27 28 29 30 31 32 -33 -34 35 -36 37 38 0
1 2 3 4 5 6 7 8 9 10 11 12 13 14 15 16 -17 18 19 20 21 22 -23 24 25 26 27 28 -29 -30 31 32 -33 34 35 36 37 38 0
1 2 3 4 5 6 -7 8 9 10 11 -12 13 14 15 16 17 18 19 20 21 22 23 24 25 26 27 28 29 -30 31 32 33 -34 35 36 37 38 0
1 2 3 4 5 6 7 8 9 10 11 12 13 14 15 16 17 18 19 20 -21 -22 23 24 -25 26 -27 28 29 30 31 32 33 34 35 36 37 38 0
1 2 3 4 5 6 7 8 9 10 11 12 13 14 15 16 17 18 19 20 -21 22 23 24 -25 26 -27 28 29 -30 31 32 33 34 35 36 37 38 0
1 2 3 4 5 6 7 8 9 10 11 -12 13 14 15 16 -17 18 19 20 21 22 23 24 25 26 27 28 29 -30 31 32 33 -34 35 36 37 38 0
1 2 3 4 5 6 7 8 9 10 11 12 13 14 15 16 -17 18 19 20 21 22 -23 24 -25 26 27 28 29 -30 31 32 33 34 35 36 37 38 0
1 2 3 4 5 6 7 8 9 10 11 12 13 14 -15 -16 17 18 19 20 -21 -22 23 24 25 26 27 28 29 30 31 32 33 34 35 36 37 38 0
1 2 3 4 5 6 7 8 9 10 11 12 13 14 15 16 17 18 19 20 -21 -22 23 24 25 26 -27 28 29 -30 31 32 33 34 35 36 37 38 0
1 2 3 4 5 6 7 8 9 10 11 -12 13 14 15 16 -17 18 19 20 21 22 23 24 25 26 27 28 -29 -30 31 32 -33 34 35 36 37 38 0
1 2 3 4 5 6 7 8 9 10 11 12 13 14 15 16 17 18 19 20 21 22 23 -24 -25 26 27 28 29 -30 31 32 33 -34 35 -36 37 38 0
1 2 3 4 5 6 7 8 9 10 11 12 13 14 15 16 17 18 19 20 21 22 -23 24 25 26 -27 28 29 30 31 -32 33 34 35 36 37 -38 0
1 2 3 4 5 6 7 8 9 10 11 12 13 14 15 16 17 18 19 20 21 22 23 24 -25 26 27 28 29 -30 31 32 33 -34 35 -36 37 38 0
1 2 3 4 5 6 7 8 9 10 11 12 13 14 15 16 17 18 19 20 21 22 23 24 25 -26 27 28 -29 30 -31 32 33 -34 35 36 37 38 0
1 2 3 4 5 6 -7 8 9 10 -11 12 13 14 15 16 -17 18 19 20 21 22 23 24 25 26 27 28 29 30 31 32 33 34 35 36 37 -38 0
1 2 -3 -4 5 -6 7 8 9 10 11 12 13 14 15 16 17 18 19 20 21 22 23 24 25 26 27 28 29 30 31 32 33 34 35 36 37 -38 0
1 2 3 4 5 6 7 8 9 10 11 -12 13 14 15 -16 17 18 19 20 21 22 -23 24 25 26 27 28 29 30 31 32 33 34 35 36 37 -38 0
1 2 3 4 5 6 7 8 9 10 11 12 13 14 15 16 17 18 19 20 21 22 23 24 25 26 27 28 29 30 -31 32 33 -34 -35 36 37 -38 0
1 2 3 4 5 6 7 8 9 10 11 12 13 14 15 16 -17 18 19 20 21 -22 23 24 25 26 27 -28 29 30 31 32 33 34 35 36 37 -38 0
1 2 3 4 5 6 7 8 9 10 11 12 13 14 15 16 17 18 19 20 21 22 23 -24 -25 26 27 28 29 -30 31 32 -33 34 35 36 37 -38 0
1 2 3 4 5 6 7 8 9 10 11 12 13 14 15 16 17 18 19 20 21 22 23 -24 -25 26 27 28 29 -30 31 32 33 34 35 36 -37 38 0
1 2 3 4 5 6 7 8 9 10 11 12 13 14 15 16 17 18 19 -20 21 22 23 -24 25 -26 27 28 29 -30 31 32 33 34 35 36 37 38 0
1 2 3 4 5 6 7 8 9 10 11 12 13 14 15 16 17 18 19 20 21 22 23 24 25 -26 27 28 -29 30 -31 32 -33 34 35 36 37 -38 0
1 2 3 4 5 6 7 8 9 10 11 12 13 14 15 16 17 18 19 -20 21 22 23 -24 25 -26 27 28 -29 30 31 32 33 34 35 36 37 -38 0
1 2 3 4 5 6 7 8 9 10 11 12 13 14 15 16 17 18 19 20 21 22 23 24 -25 -26 27 28 29 -30 31 32 33 34 35 36 37 -38 0
1 2 3 4 5 6 7 8 9 10 11 12 13 14 15 16 17 18 19 20 21 22 23 -24 -25 26 27 28 29 -30 31 32 33 -34 35 36 37 38 0
1 2 3 4 5 6 7 8 9 10 11 12 13 14 15 16 17 18 19 20 21 22 23 24 -25 -26 27 28 29 30 -31 32 -33 34 35 36 37 38 0
1 2 3 4 5 6 7 8 9 10 11 -12 13 14 15 16 -17 18 19 20 21 22 23 24 25 26 27 28 29 30 31 32 33 34 35 36 -37 38 0
1 2 -3 -4 5 -6 7 8 9 10 11 12 13 14 15 16 17 18 19 20 21 22 23 24 25 26 27 28 29 30 31 32 33 34 35 36 37 38 0
1 2 3 4 5 6 -7 8 9 10 11 -12 13 14 15 16 17 18 19 20 21 22 23 24 25 26 27 28 29 30 31 32 33 34 35 36 -37 38 0
1 2 3 4 5 6 7 8 9 10 11 12 13 14 15 16 17 18 19 20 21 22 23 24 25 26 27 -28 29 30 -31 32 33 -34 35 36 37 38 0
1 2 3 4 5 6 -7 8 9 10 -11 12 13 14 15 16 -17 18 19 20 21 22 23 24 25 26 27 28 29 30 31 32 33 34 35 36 37 38 0
1 2 3 4 5 6 7 8 9 10 11 12 13 14 15 16 17 18 19 -20 21 22 23 -24 25 -26 27 28 -29 30 31 32 33 34 35 36 37 38 0
1 2 3 4 5 6 7 8 9 10 11 12 13 14 15 16 17 18 19 20 21 22 23 24 25 26 27 -28 29 30 -31 32 33 34 -35 36 37 38 0
1 2 3 4 5 6 7 8 9 10 11 12 13 14 15 16 -17 18 19 20 21 22 -23 24 25 26 27 28 29 30 31 32 33 34 35 36 -37 38 0
1 2 3 4 5 6 7 8 9 10 11 12 13 14 15 16 17 18 19 20 21 22 23 24 -25 26 27 28 29 -30 31 32 33 34 35 36 -37 38 0
1 2 3 4 5 6 7 8 9 10 11 12 13 14 15 16 17 18 19 20 21 22 23 24 -25 26 27 28 29 -30 31 32 -33 34 35 36 37 -38 0
1 2 3 4 5 6 7 8 9 10 11 12 13 14 15 16 17 18 19 20 21 22 23 -24 -25 26 27 28 29 -30 31 32 33 34 35 36 37 -38 0
1 2 3 4 5 6 7 8 9 10 11 12 13 14 15 16 17 18 19 20 21 22 23 -24 -25 26 27 28 -29 30 31 32 33 34 35 36 -37 38 0
1 2 3 4 5 6 7 8 9 10 11 12 13 14 15 16 17 18 19 20 21 22 23 24 25 26 27 28 29 -30 -31 32 33 -34 35 36 37 38 0
1 2 3 4 5 6 7 8 9 10 11 12 13 14 15 16 17 18 19 20 21 22 -23 24 25 26 27 -28 29 30 31 32 33 34 35 36 -37 38 0
1 2 3 4 5 6 7 8 9 10 11 -12 13 14 15 -16 17 18 19 20 21 22 -23 24 25 26 27 28 29 30 31 32 33 34 35 36 37 38 0
1 2 3 4 5 6 7 8 9 10 11 12 13 14 15 16 17 18 19 20 21 22 23 24 25 26 27 -28 29 30 31 -32 33 34 35 36 -37 38 0
1 2 3 4 5 6 7 8 9 10 11 12 13 14 15 16 17 18 19 20 21 22 -23 24 25 26 -27 28 29 30 31 -32 33 34 35 36 37 38 0
1 2 3 4 5 6 7 8 9 10 11 12 13 14 15 16 17 18 19 20 21 22 23 24 -25 -26 27 28 29 -30 31 32 33 34 35 36 37 38 0
1 2 3 4 5 6 7 8 9 10 11 12 13 14 15 16 17 18 19 20 21 22 23 24 25 26 27 28 -29 -30 31 32 33 -34 35 -36 37 38 0
1 2 3 4 5 6 7 8 9 10 11 12 13 14 15 16 17 18 19 20 21 22 23 24 25 -26 27 28 -29 30 -31 32 -33 34 35 36 37 38 0
1 2 3 4 5 6 7 8 9 10 11 12 13 14 15 16 17 18 19 20 21 22 23 24 25 26 27 28 29 30 31 -32 33 -34 35 36 -37 38 0
1 2 3 4 5 6 7 8 9 10 11 12 13 14 15 16 -17 18 19 20 21 -22 23 24 25 26 27 -28 29 30 31 32 33 34 35 36 37 38 0
1 2 3 4 5 6 7 8 9 10 11 12 13 14 15 16 17 18 19 20 21 22 23 24 -25 26 27 28 29 -30 31 32 33 -34 35 36 37 38 0
1 2 3 4 5 6 7 8 9 10 11 12 13 14 15 16 17 18 19 20 21 22 23 -24 -25 26 27 28 29 -30 31 32 -33 34 35 36 37 38 0
1 2 3 4 5 6 7 8 9 10 11 12 13 14 15 16 17 18 19 20 21 22 -23 24 25 26 27 -28 29 30 31 32 33 34 35 36 37 -38 0
1 2 3 4 5 6 -7 8 9 10 11 -12 13 14 15 16 17 18 19 20 21 22 23 24 25 26 27 28 29 30 31 32 33 34 35 36 37 -38 0
1 2 3 4 5 6 7 8 9 10 11 12 13 14 15 16 17 18 19 20 21 22 23 24 25 26 27 -28 29 30 31 -32 33 34 35 36 37 -38 0
1 2 3 4 5 6 7 8 9 10 11 12 13 14 15 16 17 18 19 20 21 22 23 24 25 26 27 28 29 -30 31 32 33 -34 35 -36 37 38 0
1 2 3 4 5 6 7 8 9 10 11 -12 13 14 15 16 -17 18 19 20 21 22 23 24 25 26 27 28 29 30 31 32 33 34 35 36 37 -38 0
1 2 3 4 5 6 7 8 9 10 11 12 13 14 15 16 -17 18 19 20 21 22 -23 24 25 26 27 28 29 30 31 32 33 34 35 36 37 -38 0
1 2 3 4 5 6 7 8 9 10 11 12 13 14 15 16 17 18 19 20 21 22 23 -24 -25 26 27 28 -29 30 31 32 33 34 35 36 37 -38 0
1 2 3 4 5 6 7 8 9 10 11 12 13 14 15 16 17 18 19 20 21 22 23 24 -25 26 27 28 29 -30 31 32 33 34 35 36 37 -38 0
1 2 3 4 5 6 7 8 9 10 11 12 13 14 15 16 17 18 19 20 21 22 23 24 25 26 27 28 -29 -30 31 32 33 -34 35 36 37 38 0
1 2 3 4 5 6 7 8 9 10 11 12 13 14 15 16 17 18 19 20 21 22 23 24 25 26 27 28 -29 -30 31 32 -33 34 35 36 37 -38 0
1 2 3 4 5 6 7 8 9 10 11 12 13 14 15 16 17 18 19 20 21 22 23 -24 -25 26 27 28 29 -30 31 32 33 34 35 36 37 38 0
1 2 3 4 5 6 7 8 9 10 11 12 13 14 15 16 17 18 19 20 21 22 23 24 -25 26 27 28 29 -30 31 32 -33 34 35 36 37 38 0
1 2 3 4 5 6 7 8 9 10 11 12 13 14 15 16 17 18 19 20 21 22 23 24 25 26 27 -28 29 30 31 -32 33 34 35 36 37 38 0
1 2 3 4 5 6 -7 8 9 10 11 -12 13 14 15 16 17 18 19 20 21 22 23 24 25 26 27 28 29 30 31 32 33 34 35 36 37 38 0
1 2 3 4 5 6 7 8 9 10 11 12 13 14 15 16 17 18 19 20 21 22 23 24 25 26 27 28 29 30 31 -32 33 34 -35 36 37 38 0
1 2 3 4 5 6 7 8 9 10 11 12 13 14 15 16 17 18 19 20 21 22 23 24 25 26 27 28 -29 -30 31 32 -33 34 35 36 37 38 0
1 2 3 4 5 6 7 8 9 10 11 -12 13 14 15 16 -17 18 19 20 21 22 23 24 25 26 27 28 29 30 31 32 33 34 35 36 37 38 0
1 2 3 4 5 6 7 8 9 10 11 12 13 14 15 16 17 18 19 20 21 22 23 -24 -25 26 27 28 -29 30 31 32 33 34 35 36 37 38 0
1 2 3 4 5 6 7 8 9 10 11 12 13 14 15 16 -17 18 19 20 21 22 -23 24 25 26 27 28 29 30 31 32 33 34 35 36 37 38 0
1 2 3 4 5 6 7 8 9 10 11 12 13 14 15 16 17 18 19 20 21 22 -23 24 25 26 27 -28 29 30 31 32 33 34 35 36 37 38 0
1 2 3 4 5 6 7 8 9 10 11 12 13 14 15 16 17 18 19 20 21 22 23 24 -25 26 27 28 29 -30 31 32 33 34 35 36 37 38 0
1 2 3 4 5 6 7 8 9 10 11 12 13 14 15 16 17 18 19 20 21 22 23 24 25 26 27 28 29 -30 31 32 33 -34 35 36 37 38 0
1 2 3 4 5 6 7 8 9 10 11 12 13 14 15 16 17 18 19 20 21 22 23 24 25 26 27 28 29 30 31 32 -33 -34 35 -36 37 38 0
1 2 3 4 5 6 7 8 9 10 11 12 13 14 15 16 17 18 19 20 21 22 23 24 25 26 27 28 29 30 31 32 33 34 35 36 -37 38 0
1 2 3 4 5 6 7 8 9 10 11 12 13 14 15 16 17 18 19 20 21 22 23 24 25 26 27 28 29 30 31 32 33 34 35 36 37 -38 0
1 2 3 4 5 6 7 8 9 10 11 12 13 14 15 16 17 18 19 20 21 22 23 24 25 26 27 28 29 30 31 32 33 34 35 36 37 38 0
