c completeness certificate formula, level 4
c encoding sha256 83120d119db93fbdaeb62f982ae6e6ceaf905ce18849776444a375b5abd3b665
p cnf 22 1425
-20 -21 -22 0
-20 21 -22 0
-18 -19 -20 -21 -22 0
-18 -19 -20 -21 22 0
-18 -19 20 -21 -22 0
-18 -19 20 -21 22 0
-18 -19 20 21 22 0
-18 19 -20 -21 -22 0
-18 19 -20 -21 22 0
-18 19 20 -21 -22 0
-18 19 20 21 -22 0
-17 -18 -19 -20 -21 -22 0
-17 -18 -19 -20 -21 22 0
-17 -18 -19 -20 21 -22 0
-17 -18 -19 -20 21 22 0
-17 -18 19 -20 -21 -22 0
-17 -18 19 -20 -21 22 0
-17 -18 19 -20 21 -22 0
-17 -18 19 20 21 22 0
-17 18 -19 -20 -21 -22 0
-17 18 -19 -20 -21 22 0
-17 18 -19 -20 21 -22 0
-17 18 -19 20 21 22 0
-17 18 19 -20 -21 -22 0
-17 18 19 -20 21 22 0
-17 18 19 20 -21 22 0
-15 -16 -18 -19 -20 -21 0
-15 -16 -18 -19 -20 21 0
-15 -16 -18 -19 20 -21 0
-15 -16 -18 -19 20 21 0
-15 -16 18 -19 -20 -21 0
-15 -16 18 -19 -20 21 0
-15 -16 18 -19 20 -21 0
-15 -16 18 -19 20 21 0
-15 -16 18 19 20 21 0
-15 16 -18 -19 -20 -21 0
-15 16 -18 -19 -20 21 0
-15 16 -18 -19 20 -21 0
-15 16 -18 19 -20 21 0
-15 16 18 -19 -20 -21 0
-15 16 18 -19 20 -21 0
-15 16 18 19 20 -21 0
-14 -15 -16 -17 -18 -19 -20 -21 0
-14 -15 -16 -17 -18 -19 -20 21 0
-14 -15 -16 -17 -18 -19 20 -21 0
-14 -15 -16 -17 -18 -19 20 21 0
-14 -15 -16 -17 -18 19 -20 -21 0
-14 -15 -16 -17 -18 19 -20 21 0
-14 -15 -16 -17 -18 19 20 -21 0
-14 -15 -16 -17 -18 19 20 21 0
-14 -15 -16 17 -18 -19 -20 -21 0
-14 -15 -16 17 -18 -19 -20 21 0
-14 -15 -16 17 -18 -19 20 -21 0
-14 -15 -16 17 -18 -19 20 21 0
-14 -15 -16 17 -18 19 -20 -21 0
-14 -15 -16 17 -18 19 -20 21 0
-14 -15 -16 17 -18 19 20 -21 0
-14 -15 -16 17 -18 19 20 21 0
-14 -15 -16 17 18 19 20 21 0
-14 -15 16 -17 -18 -19 -20 -21 0
-14 -15 16 -17 -18 -19 -20 21 0
-14 -15 16 -17 -18 -19 20 -21 0
-14 -15 16 -17 -18 -19 20 21 0
-14 -15 16 -17 -18 19 -20 -21 0
-14 -15 16 -17 -18 19 -20 21 0
-14 -15 16 -17 -18 19 20 -21 0
-14 -15 16 -17 -18 19 20 21 0
-14 -15 16 -17 18 19 20 21 0
-14 -15 16 17 -18 -19 -20 -21 0
-14 -15 16 17 -18 -19 -20 21 0
-14 -15 16 17 -18 -19 20 -21 0
-14 -15 16 17 -18 -19 20 21 0
-14 -15 16 17 -18 19 -20 -21 0
-14 -15 16 17 -18 19 -20 21 0
-14 -15 16 17 -18 19 20 -21 0
-14 -15 16 17 18 -19 20 21 0
-14 -15 16 17 18 19 -20 21 0
-14 -15 16 17 18 19 20 -21 0
-14 15 -16 -17 -18 -19 -20 -21 0
-14 15 -16 -17 -18 -19 -20 21 0
-14 15 -16 -17 -18 -19 20 -21 0
-14 15 -16 -17 -18 -19 20 21 0
-14 15 -16 -17 -18 19 -20 -21 0
-14 15 -16 -17 -18 19 -20 21 0
-14 15 -16 -17 -18 19 20 -21 0
-14 15 -16 -17 -18 19 20 21 0
-14 15 -16 -17 18 19 20 21 0
-14 15 -16 17 -18 -19 -20 -21 0
-14 15 -16 17 -18 -19 -20 21 0
-14 15 -16 17 -18 -19 20 -21 0
-14 15 -16 17 -18 -19 20 21 0
-14 15 -16 17 -18 19 -20 -21 0
-14 15 -16 17 -18 19 -20 21 0
-14 15 -16 17 -18 19 20 -21 0
-14 15 -16 17 18 -19 20 21 0
-14 15 -16 17 18 19 -20 21 0
-14 15 -16 17 18 19 20 -21 0
-14 15 16 -17 -18 -19 -20 -21 0
-14 15 16 -17 -18 -19 -20 21 0
-14 15 16 -17 -18 -19 20 -21 0
-14 15 16 -17 -18 -19 20 21 0
-14 15 16 -17 -18 19 -20 -21 0
-14 15 16 -17 -18 19 -20 21 0
-14 15 16 -17 -18 19 20 -21 0
-14 15 16 -17 18 -19 20 21 0
-14 15 16 -17 18 19 -20 21 0
-14 15 16 -17 18 19 20 -21 0
-14 15 16 17 -18 -19 -20 -21 0
-14 15 16 17 -18 -19 -20 21 0
-14 15 16 17 -18 -19 20 -21 0
-14 15 16 17 -18 19 -20 -21 0
-14 15 16 17 18 -19 -20 21 0
-14 15 16 17 18 -19 20 -21 0
-14 15 16 17 18 19 -20 -21 0
-13 -14 -15 -17 -18 -20 0
-13 -14 -15 -17 -18 20 0
-13 -14 -15 -17 18 -20 0
-13 -14 -15 -17 18 20 0
-13 -14 15 -17 -18 -20 0
-13 -14 15 -17 -18 20 0
-13 -14 15 -17 18 -20 0
-13 -14 15 17 18 20 0
-13 14 -15 -17 -18 -20 0
-13 14 -15 -17 -18 20 0
-13 14 -15 -17 18 -20 0
-13 14 -15 17 18 20 0
-13 14 15 -17 -18 -20 0
-13 14 15 -17 18 20 0
-13 14 15 17 -18 20 0
-11 -12 -15 -16 -18 -19 0
-11 -12 -15 -16 -18 19 0
-11 -12 -15 -16 18 -19 0
-11 -12 -15 -16 18 19 0
-11 -12 15 -16 -18 -19 0
-11 -12 15 -16 -18 19 0
-11 -12 15 -16 18 -19 0
-11 -12 15 -16 18 19 0
-11 -12 15 16 18 19 0
-11 12 -15 -16 -18 -19 0
-11 12 -15 -16 -18 19 0
-11 12 -15 -16 18 -19 0
-11 12 -15 16 -18 19 0
-11 12 15 -16 -18 -19 0
-11 12 15 -16 18 -19 0
-11 12 15 16 18 -19 0
-10 -11 -12 -14 -15 -16 -17 -18 -19 0
-10 -11 -12 -14 -15 -16 -17 -18 19 0
-10 -11 -12 -14 -15 -16 -17 18 -19 0
-10 -11 -12 -14 -15 -16 -17 18 19 0
-10 -11 -12 -14 -15 -16 17 -18 -19 0
-10 -11 -12 -14 -15 -16 17 -18 19 0
-10 -11 -12 -14 -15 -16 17 18 -19 0
-10 -11 -12 -14 -15 -16 17 18 19 0
-10 -11 -12 -14 -15 16 -17 -18 -19 0
-10 -11 -12 -14 -15 16 -17 -18 19 0
-10 -11 -12 -14 -15 16 -17 18 -19 0
-10 -11 -12 -14 -15 16 -17 18 19 0
-10 -11 -12 -14 -15 16 17 -18 -19 0
-10 -11 -12 -14 -15 16 17 -18 19 0
-10 -11 -12 -14 -15 16 17 18 -19 0
-10 -11 -12 -14 -15 16 17 18 19 0
-10 -11 -12 14 -15 -16 -17 -18 -19 0
-10 -11 -12 14 -15 -16 -17 -18 19 0
-10 -11 -12 14 -15 -16 -17 18 -19 0
-10 -11 -12 14 -15 -16 -17 18 19 0
-10 -11 -12 14 -15 -16 17 -18 -19 0
-10 -11 -12 14 -15 -16 17 -18 19 0
-10 -11 -12 14 -15 -16 17 18 -19 0
-10 -11 -12 14 -15 -16 17 18 19 0
-10 -11 -12 14 -15 16 -17 -18 -19 0
-10 -11 -12 14 -15 16 -17 -18 19 0
-10 -11 -12 14 -15 16 -17 18 -19 0
-10 -11 -12 14 -15 16 -17 18 19 0
-10 -11 -12 14 -15 16 17 -18 -19 0
-10 -11 -12 14 -15 16 17 -18 19 0
-10 -11 -12 14 -15 16 17 18 -19 0
-10 -11 -12 14 15 16 17 18 19 0
-10 -11 12 -14 -15 -16 -17 -18 -19 0
-10 -11 12 -14 -15 -16 -17 -18 19 0
-10 -11 12 -14 -15 -16 -17 18 -19 0
-10 -11 12 -14 -15 -16 -17 18 19 0
-10 -11 12 -14 -15 -16 17 -18 -19 0
-10 -11 12 -14 -15 -16 17 -18 19 0
-10 -11 12 -14 -15 -16 17 18 -19 0
-10 -11 12 -14 -15 -16 17 18 19 0
-10 -11 12 -14 -15 16 -17 -18 -19 0
-10 -11 12 -14 -15 16 -17 -18 19 0
-10 -11 12 -14 -15 16 -17 18 -19 0
-10 -11 12 -14 -15 16 -17 18 19 0
-10 -11 12 -14 -15 16 17 -18 -19 0
-10 -11 12 -14 -15 16 17 -18 19 0
-10 -11 12 -14 -15 16 17 18 -19 0
-10 -11 12 -14 15 16 17 18 19 0
-10 -11 12 14 -15 -16 -17 -18 -19 0
-10 -11 12 14 -15 -16 -17 -18 19 0
-10 -11 12 14 -15 -16 -17 18 -19 0
-10 -11 12 14 -15 -16 -17 18 19 0
-10 -11 12 14 -15 -16 17 -18 -19 0
-10 -11 12 14 -15 -16 17 -18 19 0
-10 -11 12 14 -15 -16 17 18 -19 0
-10 -11 12 14 -15 16 -17 -18 -19 0
-10 -11 12 14 -15 16 -17 -18 19 0
-10 -11 12 14 -15 16 -17 18 -19 0
-10 -11 12 14 -15 16 17 -18 -19 0
-10 -11 12 14 15 -16 17 18 19 0
-10 -11 12 14 15 16 -17 18 19 0
-10 -11 12 14 15 16 17 -18 19 0
-10 -11 12 14 15 16 17 18 -19 0
-10 11 -12 -14 -15 -16 -17 -18 -19 0
-10 11 -12 -14 -15 -16 -17 -18 19 0
-10 11 -12 -14 -15 -16 -17 18 -19 0
-10 11 -12 -14 -15 -16 -17 18 19 0
-10 11 -12 -14 -15 -16 17 -18 -19 0
-10 11 -12 -14 -15 -16 17 -18 19 0
-10 11 -12 -14 -15 -16 17 18 -19 0
-10 11 -12 -14 -15 -16 17 18 19 0
-10 11 -12 -14 -15 16 -17 -18 -19 0
-10 11 -12 -14 -15 16 -17 -18 19 0
-10 11 -12 -14 -15 16 -17 18 -19 0
-10 11 -12 -14 -15 16 -17 18 19 0
-10 11 -12 -14 -15 16 17 -18 -19 0
-10 11 -12 -14 -15 16 17 -18 19 0
-10 11 -12 -14 -15 16 17 18 -19 0
-10 11 -12 -14 15 16 17 18 19 0
-10 11 -12 14 -15 -16 -17 -18 -19 0
-10 11 -12 14 -15 -16 -17 -18 19 0
-10 11 -12 14 -15 -16 -17 18 -19 0
-10 11 -12 14 -15 -16 -17 18 19 0
-10 11 -12 14 -15 -16 17 -18 -19 0
-10 11 -12 14 -15 -16 17 -18 19 0
-10 11 -12 14 -15 -16 17 18 -19 0
-10 11 -12 14 -15 16 -17 -18 -19 0
-10 11 -12 14 -15 16 -17 -18 19 0
-10 11 -12 14 -15 16 -17 18 -19 0
-10 11 -12 14 -15 16 17 -18 -19 0
-10 11 -12 14 15 -16 17 18 19 0
-10 11 -12 14 15 16 -17 18 19 0
-10 11 -12 14 15 16 17 -18 19 0
-10 11 -12 14 15 16 17 18 -19 0
-10 11 12 -14 -15 -16 -17 -18 -19 0
-10 11 12 -14 -15 -16 -17 -18 19 0
-10 11 12 -14 -15 -16 -17 18 -19 0
-10 11 12 -14 -15 -16 -17 18 19 0
-10 11 12 -14 -15 -16 17 -18 -19 0
-10 11 12 -14 -15 -16 17 -18 19 0
-10 11 12 -14 -15 -16 17 18 -19 0
-10 11 12 -14 -15 16 -17 -18 -19 0
-10 11 12 -14 -15 16 -17 -18 19 0
-10 11 12 -14 -15 16 -17 18 -19 0
-10 11 12 -14 -15 16 17 -18 -19 0
-10 11 12 -14 15 -16 17 18 19 0
-10 11 12 -14 15 16 -17 18 19 0
-10 11 12 -14 15 16 17 -18 19 0
-10 11 12 -14 15 16 17 18 -19 0
-10 11 12 14 -15 -16 -17 -18 -19 0
-10 11 12 14 -15 -16 -17 -18 19 0
-10 11 12 14 -15 -16 -17 18 -19 0
-10 11 12 14 -15 -16 17 -18 -19 0
-10 11 12 14 -15 16 -17 -18 -19 0
-10 11 12 14 -15 16 17 18 19 0
-10 11 12 14 15 -16 -17 18 19 0
-10 11 12 14 15 -16 17 -18 19 0
-10 11 12 14 15 -16 17 18 -19 0
-10 11 12 14 15 16 -17 -18 19 0
-10 11 12 14 15 16 -17 18 -19 0
-10 11 12 14 15 16 17 -18 -19 0
-9 -10 -11 -13 -14 -15 -17 -18 0
-9 -10 -11 -13 -14 -15 -17 18 0
-9 -10 -11 -13 -14 -15 17 -18 0
-9 -10 -11 -13 -14 -15 17 18 0
-9 -10 -11 -13 -14 15 -17 -18 0
-9 -10 -11 -13 -14 15 -17 18 0
-9 -10 -11 -13 -14 15 17 -18 0
-9 -10 -11 -13 -14 15 17 18 0
-9 -10 -11 13 -14 -15 -17 -18 0
-9 -10 -11 13 -14 -15 -17 18 0
-9 -10 -11 13 -14 -15 17 -18 0
-9 -10 -11 13 -14 -15 17 18 0
-9 -10 -11 13 -14 15 -17 -18 0
-9 -10 -11 13 -14 15 -17 18 0
-9 -10 -11 13 -14 15 17 -18 0
-9 -10 -11 13 -14 15 17 18 0
-9 -10 -11 13 14 15 17 18 0
-9 -10 11 -13 -14 -15 -17 -18 0
-9 -10 11 -13 -14 -15 -17 18 0
-9 -10 11 -13 -14 -15 17 -18 0
-9 -10 11 -13 -14 -15 17 18 0
-9 -10 11 -13 -14 15 -17 -18 0
-9 -10 11 -13 -14 15 -17 18 0
-9 -10 11 -13 -14 15 17 -18 0
-9 -10 11 -13 -14 15 17 18 0
-9 -10 11 -13 14 15 17 18 0
-9 -10 11 13 -14 -15 -17 -18 0
-9 -10 11 13 -14 -15 -17 18 0
-9 -10 11 13 -14 -15 17 -18 0
-9 -10 11 13 -14 -15 17 18 0
-9 -10 11 13 -14 15 -17 -18 0
-9 -10 11 13 -14 15 -17 18 0
-9 -10 11 13 -14 15 17 -18 0
-9 -10 11 13 14 -15 17 18 0
-9 -10 11 13 14 15 -17 18 0
-9 -10 11 13 14 15 17 -18 0
-9 10 -11 -13 -14 -15 -17 -18 0
-9 10 -11 -13 -14 -15 -17 18 0
-9 10 -11 -13 -14 -15 17 -18 0
-9 10 -11 -13 -14 -15 17 18 0
-9 10 -11 -13 -14 15 -17 -18 0
-9 10 -11 -13 -14 15 -17 18 0
-9 10 -11 -13 -14 15 17 -18 0
-9 10 -11 -13 -14 15 17 18 0
-9 10 -11 -13 14 15 17 18 0
-9 10 -11 13 -14 -15 -17 -18 0
-9 10 -11 13 -14 -15 -17 18 0
-9 10 -11 13 -14 -15 17 -18 0
-9 10 -11 13 -14 -15 17 18 0
-9 10 -11 13 -14 15 -17 -18 0
-9 10 -11 13 -14 15 -17 18 0
-9 10 -11 13 -14 15 17 -18 0
-9 10 -11 13 14 -15 17 18 0
-9 10 -11 13 14 15 -17 18 0
-9 10 -11 13 14 15 17 -18 0
-9 10 11 -13 -14 -15 -17 -18 0
-9 10 11 -13 -14 -15 -17 18 0
-9 10 11 -13 -14 -15 17 -18 0
-9 10 11 -13 -14 -15 17 18 0
-9 10 11 -13 -14 15 -17 -18 0
-9 10 11 -13 -14 15 -17 18 0
-9 10 11 -13 -14 15 17 -18 0
-9 10 11 -13 14 -15 17 18 0
-9 10 11 -13 14 15 -17 18 0
-9 10 11 -13 14 15 17 -18 0
-9 10 11 13 -14 -15 -17 -18 0
-9 10 11 13 -14 -15 -17 18 0
-9 10 11 13 -14 -15 17 -18 0
-9 10 11 13 -14 15 -17 -18 0
-9 10 11 13 14 -15 -17 18 0
-9 10 11 13 14 -15 17 -18 0
-9 10 11 13 14 15 -17 -18 0
-8 -9 0
-8 -9 -13 0
-8 -9 -10 -13 -14 -17 0
-8 -9 -10 -13 -14 17 0
-8 -9 -10 -13 14 -17 0
-8 -9 -10 -13 14 17 0
-8 -9 10 -13 -14 -17 0
-8 -9 10 -13 -14 17 0
-8 -9 10 -13 14 -17 0
-8 -9 10 13 14 17 0
-8 -9 13 0
-8 9 -10 -13 -14 -17 0
-8 9 -10 -13 -14 17 0
-8 9 -10 -13 14 -17 0
-8 9 -10 13 14 17 0
-8 9 10 -13 -14 -17 0
-8 9 10 -13 14 17 0
-8 9 10 13 -14 17 0
-6 -7 -11 -12 -15 -16 0
-6 -7 -11 -12 -15 16 0
-6 -7 -11 -12 15 -16 0
-6 -7 -11 -12 15 16 0
-6 -7 11 -12 -15 -16 0
-6 -7 11 -12 -15 16 0
-6 -7 11 -12 15 -16 0
-6 -7 11 -12 15 16 0
-6 -7 11 12 15 16 0
-6 7 -11 -12 -15 -16 0
-6 7 -11 -12 -15 16 0
-6 7 -11 -12 15 -16 0
-6 7 -11 12 -15 16 0
-6 7 11 -12 -15 -16 0
-6 7 11 -12 15 -16 0
-6 7 11 12 15 -16 0
-5 -8 -9 -10 -13 -14 0
-5 -8 -9 -10 -13 14 0
-5 -8 -9 -10 13 -14 0
-5 -8 -9 -10 13 14 0
-5 -8 -9 10 -13 -14 0
-5 -8 -9 10 -13 14 0
-5 -8 -9 10 13 -14 0
-5 -8 -9 10 13 14 0
-5 -8 9 10 13 14 0
-5 -6 -9 -10 -11 -13 -14 -15 0
-5 -6 -9 -10 -11 -13 -14 15 0
-5 -6 -9 -10 -11 -13 14 -15 0
-5 -6 -9 -10 -11 -13 14 15 0
-5 -6 -9 -10 -11 13 -14 -15 0
-5 -6 -9 -10 -11 13 -14 15 0
-5 -6 -9 -10 -11 13 14 -15 0
-5 -6 -9 -10 -11 13 14 15 0
-5 -6 -9 -10 11 -13 -14 -15 0
-5 -6 -9 -10 11 -13 -14 15 0
-5 -6 -9 -10 11 -13 14 -15 0
-5 -6 -9 -10 11 -13 14 15 0
-5 -6 -9 -10 11 13 -14 -15 0
-5 -6 -9 -10 11 13 -14 15 0
-5 -6 -9 -10 11 13 14 -15 0
-5 -6 -9 10 11 13 14 15 0
-5 -6 -7 -10 -11 -12 -14 -15 -16 0
-5 -6 -7 -10 -11 -12 -14 -15 16 0
-5 -6 -7 -10 -11 -12 -14 15 -16 0
-5 -6 -7 -10 -11 -12 -14 15 16 0
-5 -6 -7 -10 -11 -12 14 -15 -16 0
-5 -6 -7 -10 -11 -12 14 -15 16 0
-5 -6 -7 -10 -11 -12 14 15 -16 0
-5 -6 -7 -10 -11 -12 14 15 16 0
-5 -6 -7 -10 -11 12 -14 -15 -16 0
-5 -6 -7 -10 -11 12 -14 -15 16 0
-5 -6 -7 -10 -11 12 -14 15 -16 0
-5 -6 -7 -10 -11 12 -14 15 16 0
-5 -6 -7 -10 -11 12 14 -15 -16 0
-5 -6 -7 -10 -11 12 14 -15 16 0
-5 -6 -7 -10 -11 12 14 15 -16 0
-5 -6 -7 -10 -11 12 14 15 16 0
-5 -6 -7 10 -11 -12 -14 -15 -16 0
-5 -6 -7 10 -11 -12 -14 -15 16 0
-5 -6 -7 10 -11 -12 -14 15 -16 0
-5 -6 -7 10 -11 -12 -14 15 16 0
-5 -6 -7 10 -11 -12 14 -15 -16 0
-5 -6 -7 10 -11 -12 14 -15 16 0
-5 -6 -7 10 -11 -12 14 15 -16 0
-5 -6 -7 10 -11 -12 14 15 16 0
-5 -6 -7 10 -11 12 -14 -15 -16 0
-5 -6 -7 10 -11 12 -14 -15 16 0
-5 -6 -7 10 -11 12 -14 15 -16 0
-5 -6 -7 10 -11 12 -14 15 16 0
-5 -6 -7 10 -11 12 14 -15 -16 0
-5 -6 -7 10 -11 12 14 -15 16 0
-5 -6 -7 10 -11 12 14 15 -16 0
-5 -6 -7 10 11 12 14 15 16 0
-5 -6 7 -10 -11 -12 -14 -15 -16 0
-5 -6 7 -10 -11 -12 -14 -15 16 0
-5 -6 7 -10 -11 -12 -14 15 -16 0
-5 -6 7 -10 -11 -12 -14 15 16 0
-5 -6 7 -10 -11 -12 14 -15 -16 0
-5 -6 7 -10 -11 -12 14 -15 16 0
-5 -6 7 -10 -11 -12 14 15 -16 0
-5 -6 7 -10 -11 -12 14 15 16 0
-5 -6 7 -10 -11 12 -14 -15 -16 0
-5 -6 7 -10 -11 12 -14 -15 16 0
-5 -6 7 -10 -11 12 -14 15 -16 0
-5 -6 7 -10 -11 12 -14 15 16 0
-5 -6 7 -10 -11 12 14 -15 -16 0
-5 -6 7 -10 -11 12 14 -15 16 0
-5 -6 7 -10 -11 12 14 15 -16 0
-5 -6 7 -10 11 12 14 15 16 0
-5 -6 7 10 -11 -12 -14 -15 -16 0
-5 -6 7 10 -11 -12 -14 -15 16 0
-5 -6 7 10 -11 -12 -14 15 -16 0
-5 -6 7 10 -11 -12 -14 15 16 0
-5 -6 7 10 -11 -12 14 -15 -16 0
-5 -6 7 10 -11 -12 14 -15 16 0
-5 -6 7 10 -11 -12 14 15 -16 0
-5 -6 7 10 -11 12 -14 -15 -16 0
-5 -6 7 10 -11 12 -14 -15 16 0
-5 -6 7 10 -11 12 -14 15 -16 0
-5 -6 7 10 -11 12 14 -15 -16 0
-5 -6 7 10 11 -12 14 15 16 0
-5 -6 7 10 11 12 -14 15 16 0
-5 -6 7 10 11 12 14 -15 16 0
-5 -6 7 10 11 12 14 15 -16 0
-5 -6 9 -10 -11 -13 -14 -15 0
-5 -6 9 -10 -11 -13 -14 15 0
-5 -6 9 -10 -11 -13 14 -15 0
-5 -6 9 -10 -11 -13 14 15 0
-5 -6 9 -10 -11 13 -14 -15 0
-5 -6 9 -10 -11 13 -14 15 0
-5 -6 9 -10 -11 13 14 -15 0
-5 -6 9 -10 11 -13 -14 -15 0
-5 -6 9 -10 11 -13 -14 15 0
-5 -6 9 -10 11 -13 14 -15 0
-5 -6 9 -10 11 13 -14 -15 0
-5 -6 9 10 -11 13 14 15 0
-5 -6 9 10 11 -13 14 15 0
-5 -6 9 10 11 13 -14 15 0
-5 -6 9 10 11 13 14 -15 0
-5 6 -9 -10 -11 -13 -14 -15 0
-5 6 -9 -10 -11 -13 -14 15 0
-5 6 -9 -10 -11 -13 14 -15 0
-5 6 -9 -10 -11 -13 14 15 0
-5 6 -9 -10 -11 13 -14 -15 0
-5 6 -9 -10 -11 13 -14 15 0
-5 6 -9 -10 -11 13 14 -15 0
-5 6 -9 -10 11 -13 -14 -15 0
-5 6 -9 -10 11 -13 -14 15 0
-5 6 -9 -10 11 -13 14 -15 0
-5 6 -9 -10 11 13 -14 -15 0
-5 6 -9 10 -11 13 14 15 0
-5 6 -9 10 11 -13 14 15 0
-5 6 -9 10 11 13 -14 15 0
-5 6 -9 10 11 13 14 -15 0
-5 6 -7 -10 -11 -12 -14 -15 -16 0
-5 6 -7 -10 -11 -12 -14 -15 16 0
-5 6 -7 -10 -11 -12 -14 15 -16 0
-5 6 -7 -10 -11 -12 -14 15 16 0
-5 6 -7 -10 -11 -12 14 -15 -16 0
-5 6 -7 -10 -11 -12 14 -15 16 0
-5 6 -7 -10 -11 -12 14 15 -16 0
-5 6 -7 -10 -11 -12 14 15 16 0
-5 6 -7 -10 -11 12 -14 -15 -16 0
-5 6 -7 -10 -11 12 -14 -15 16 0
-5 6 -7 -10 -11 12 -14 15 -16 0
-5 6 -7 -10 -11 12 -14 15 16 0
-5 6 -7 -10 -11 12 14 -15 -16 0
-5 6 -7 -10 -11 12 14 -15 16 0
-5 6 -7 -10 -11 12 14 15 -16 0
-5 6 -7 -10 11 12 14 15 16 0
-5 6 -7 10 -11 -12 -14 -15 -16 0
-5 6 -7 10 -11 -12 -14 -15 16 0
-5 6 -7 10 -11 -12 -14 15 -16 0
-5 6 -7 10 -11 -12 -14 15 16 0
-5 6 -7 10 -11 -12 14 -15 -16 0
-5 6 -7 10 -11 -12 14 -15 16 0
-5 6 -7 10 -11 -12 14 15 -16 0
-5 6 -7 10 -11 12 -14 -15 -16 0
-5 6 -7 10 -11 12 -14 -15 16 0
-5 6 -7 10 -11 12 -14 15 -16 0
-5 6 -7 10 -11 12 14 -15 -16 0
-5 6 -7 10 11 -12 14 15 16 0
-5 6 -7 10 11 12 -14 15 16 0
-5 6 -7 10 11 12 14 -15 16 0
-5 6 -7 10 11 12 14 15 -16 0
-5 6 7 -10 -11 -12 -14 -15 -16 0
-5 6 7 -10 -11 -12 -14 -15 16 0
-5 6 7 -10 -11 -12 -14 15 -16 0
-5 6 7 -10 -11 -12 -14 15 16 0
-5 6 7 -10 -11 -12 14 -15 -16 0
-5 6 7 -10 -11 -12 14 -15 16 0
-5 6 7 -10 -11 -12 14 15 -16 0
-5 6 7 -10 -11 12 -14 -15 -16 0
-5 6 7 -10 -11 12 -14 -15 16 0
-5 6 7 -10 -11 12 -14 15 -16 0
-5 6 7 -10 -11 12 14 -15 -16 0
-5 6 7 -10 11 -12 14 15 16 0
-5 6 7 -10 11 12 -14 15 16 0
-5 6 7 -10 11 12 14 -15 16 0
-5 6 7 -10 11 12 14 15 -16 0
-5 6 7 10 -11 -12 -14 -15 -16 0
-5 6 7 10 -11 -12 -14 -15 16 0
-5 6 7 10 -11 -12 -14 15 -16 0
-5 6 7 10 -11 -12 14 -15 -16 0
-5 6 7 10 -11 12 -14 -15 -16 0
-5 6 7 10 -11 12 14 15 16 0
-5 6 7 10 11 -12 -14 15 16 0
-5 6 7 10 11 -12 14 -15 16 0
-5 6 7 10 11 -12 14 15 -16 0
-5 6 7 10 11 12 -14 -15 16 0
-5 6 7 10 11 12 -14 15 -16 0
-5 6 7 10 11 12 14 -15 -16 0
-5 6 9 -10 -11 -13 -14 -15 0
-5 6 9 -10 -11 -13 -14 15 0
-5 6 9 -10 -11 -13 14 -15 0
-5 6 9 -10 -11 13 -14 -15 0
-5 6 9 -10 11 -13 -14 -15 0
-5 6 9 -10 11 13 14 15 0
-5 6 9 10 -11 -13 14 15 0
-5 6 9 10 -11 13 -14 15 0
-5 6 9 10 -11 13 14 -15 0
-5 6 9 10 11 -13 -14 15 0
-5 6 9 10 11 -13 14 -15 0
-5 6 9 10 11 13 -14 -15 0
-5 8 -9 -10 -13 -14 0
-5 8 -9 -10 -13 14 0
-5 8 -9 -10 13 -14 0
-5 8 -9 -10 13 14 0
-5 8 -9 10 -13 -14 0
-5 8 -9 10 -13 14 0
-5 8 -9 10 13 -14 0
-5 8 9 -10 13 14 0
-5 8 9 10 0
-5 8 9 10 -13 14 0
-5 8 9 10 13 -14 0
-3 -5 -6 -9 -10 -11 0
-3 -5 -6 -9 -10 11 0
-3 -5 -6 -9 10 -11 0
-3 -5 -6 9 -10 -11 0
-3 -5 6 -9 -10 -11 0
-3 -5 6 9 10 11 0
-3 -4 -6 -7 -11 -12 0
-3 -4 -6 -7 -11 12 0
-3 -4 -6 -7 11 -12 0
-3 -4 -6 -7 11 12 0
-3 -4 -5 -6 -7 -10 -11 -12 0
-3 -4 -5 -6 -7 -10 -11 12 0
-3 -4 -5 -6 -7 -10 11 -12 0
-3 -4 -5 -6 -7 -10 11 12 0
-3 -4 -5 -6 -7 10 -11 -12 0
-3 -4 -5 -6 -7 10 -11 12 0
-3 -4 -5 -6 -7 10 11 -12 0
-3 -4 -5 -6 -7 10 11 12 0
-3 -4 -5 -6 7 -10 -11 -12 0
-3 -4 -5 -6 7 -10 -11 12 0
-3 -4 -5 -6 7 -10 11 -12 0
-3 -4 -5 -6 7 -10 11 12 0
-3 -4 -5 -6 7 10 -11 -12 0
-3 -4 -5 -6 7 10 -11 12 0
-3 -4 -5 -6 7 10 11 -12 0
-3 -4 -5 6 7 10 11 12 0
-3 -4 5 -6 -7 -10 -11 -12 0
-3 -4 5 -6 -7 -10 -11 12 0
-3 -4 5 -6 -7 -10 11 -12 0
-3 -4 5 -6 -7 -10 11 12 0
-3 -4 5 -6 -7 10 -11 -12 0
-3 -4 5 -6 -7 10 -11 12 0
-3 -4 5 -6 -7 10 11 -12 0
-3 -4 5 -6 7 -10 -11 -12 0
-3 -4 5 -6 7 -10 -11 12 0
-3 -4 5 -6 7 -10 11 -12 0
-3 -4 5 -6 7 10 -11 -12 0
-3 -4 5 6 -7 10 11 12 0
-3 -4 5 6 7 -10 11 12 0
-3 -4 5 6 7 10 -11 12 0
-3 -4 5 6 7 10 11 -12 0
-3 -4 6 -7 -11 -12 0
-3 -4 6 -7 -11 12 0
-3 -4 6 -7 11 -12 0
-3 -4 6 -7 11 12 0
-3 -4 6 7 11 12 0
-3 4 -6 -7 -11 -12 0
-3 4 -6 -7 -11 12 0
-3 4 -6 -7 11 -12 0
-3 4 -6 7 -11 12 0
-3 4 -5 -6 -7 -10 -11 -12 0
-3 4 -5 -6 -7 -10 -11 12 0
-3 4 -5 -6 -7 -10 11 -12 0
-3 4 -5 -6 -7 -10 11 12 0
-3 4 -5 -6 -7 10 -11 -12 0
-3 4 -5 -6 -7 10 -11 12 0
-3 4 -5 -6 -7 10 11 -12 0
-3 4 -5 -6 7 -10 -11 -12 0
-3 4 -5 -6 7 -10 -11 12 0
-3 4 -5 -6 7 -10 11 -12 0
-3 4 -5 -6 7 10 -11 -12 0
-3 4 -5 6 -7 10 11 12 0
-3 4 -5 6 7 -10 11 12 0
-3 4 -5 6 7 10 -11 12 0
-3 4 -5 6 7 10 11 -12 0
-3 4 5 -6 -7 -10 -11 -12 0
-3 4 5 -6 -7 -10 -11 12 0
-3 4 5 -6 -7 -10 11 -12 0
-3 4 5 -6 -7 10 -11 -12 0
-3 4 5 -6 7 -10 -11 -12 0
-3 4 5 -6 7 10 11 12 0
-3 4 5 6 -7 -10 11 12 0
-3 4 5 6 -7 10 -11 12 0
-3 4 5 6 -7 10 11 -12 0
-3 4 5 6 7 -10 -11 12 0
-3 4 5 6 7 -10 11 -12 0
-3 4 5 6 7 10 -11 -12 0
-3 4 6 -7 -11 -12 0
-3 4 6 -7 11 -12 0
-3 4 6 7 11 -12 0
-3 5 -6 -9 10 11 0
-3 5 -6 9 -10 11 0
-3 5 -6 9 10 -11 0
-3 5 6 -9 -10 11 0
-3 5 6 -9 10 -11 0
-3 5 6 9 -10 -11 0
-1 -3 0
-1 -2 0
-1 -2 -3 -4 0
-1 -2 -3 -4 -6 -7 0
-1 -2 -3 -4 -6 7 0
-1 -2 -3 -4 -5 -6 -7 0
-1 -2 -3 -4 -5 -6 7 0
-1 -2 -3 -4 -5 6 -7 0
-1 -2 -3 -4 -5 6 7 0
-1 -2 -3 -4 5 -6 -7 0
-1 -2 -3 -4 5 -6 7 0
-1 -2 -3 -4 5 6 -7 0
-1 -2 -3 -4 5 6 7 0
-1 -2 -3 -4 6 -7 0
-1 -2 -3 -4 6 7 0
-1 -2 -3 4 0
-1 -2 -3 4 -5 -6 -7 0
-1 -2 -3 4 -5 -6 7 0
-1 -2 -3 4 -5 6 -7 0
-1 -2 -3 4 -5 6 7 0
-1 -2 -3 4 5 -6 -7 0
-1 -2 -3 4 5 -6 7 0
-1 -2 -3 4 5 6 -7 0
-1 -2 3 -4 0
-1 -2 3 -4 -6 -7 0
-1 -2 3 -4 -6 7 0
-1 -2 3 -4 6 -7 0
-1 -2 3 -4 6 7 0
-1 -2 3 4 5 6 7 0
-1 -2 3 4 6 7 0
-1 2 0
-1 2 -3 -4 0
-1 2 -3 -4 -6 -7 0
-1 2 -3 -4 -6 7 0
-1 2 -3 -4 -5 -6 -7 0
-1 2 -3 -4 -5 -6 7 0
-1 2 -3 -4 -5 6 -7 0
-1 2 -3 -4 -5 6 7 0
-1 2 -3 -4 5 -6 -7 0
-1 2 -3 -4 5 -6 7 0
-1 2 -3 -4 5 6 -7 0
-1 2 -3 -4 6 -7 0
-1 2 -3 4 0
-1 2 -3 4 -6 7 0
-1 2 -3 4 -5 -6 -7 0
-1 2 -3 4 -5 -6 7 0
-1 2 -3 4 -5 6 -7 0
-1 2 -3 4 5 -6 -7 0
-1 2 3 -4 -6 -7 0
-1 2 3 -4 5 6 7 0
-1 2 3 -4 6 -7 0
-1 2 3 4 -5 6 7 0
-1 2 3 4 5 -6 7 0
-1 2 3 4 5 6 -7 0
-1 2 3 4 6 -7 0
-1 3 5 6 0
1 -3 5 6 0
1 -2 -3 -4 0
1 -2 -3 -4 -6 -7 0
1 -2 -3 -4 -6 7 0
1 -2 -3 -4 -5 -6 -7 0
1 -2 -3 -4 -5 -6 7 0
1 -2 -3 -4 -5 6 -7 0
1 -2 -3 -4 -5 6 7 0
1 -2 -3 -4 5 -6 -7 0
1 -2 -3 -4 5 -6 7 0
1 -2 -3 -4 5 6 -7 0
1 -2 -3 -4 6 -7 0
1 -2 -3 -4 6 7 0
1 -2 -3 4 -5 -6 -7 0
1 -2 -3 4 -5 -6 7 0
1 -2 -3 4 -5 6 -7 0
1 -2 -3 4 5 -6 -7 0
1 -2 -3 4 6 7 0
1 -2 3 -4 0
1 -2 3 -4 -6 -7 0
1 -2 3 -4 -6 7 0
1 -2 3 -4 5 6 7 0
1 -2 3 -4 6 -7 0
1 -2 3 4 0
1 -2 3 4 -6 7 0
1 -2 3 4 -5 6 7 0
1 -2 3 4 5 -6 7 0
1 -2 3 4 5 6 -7 0
1 2 -3 -4 -6 -7 0
1 2 -3 -4 -5 -6 -7 0
1 2 -3 -4 -5 -6 7 0
1 2 -3 -4 -5 6 -7 0
1 2 -3 -4 5 -6 -7 0
1 2 -3 -4 6 -7 0
1 2 -3 4 0
1 2 -3 4 -5 -6 -7 0
1 2 -3 4 5 6 7 0
1 2 -3 4 6 -7 0
1 2 3 -4 0
1 2 3 -4 -6 -7 0
1 2 3 -4 -5 6 7 0
1 2 3 -4 5 -6 7 0
1 2 3 -4 5 6 -7 0
1 2 3 -4 6 7 0
1 2 3 4 -6 -7 0
1 2 3 4 -5 -6 7 0
1 2 3 4 -5 6 -7 0
1 2 3 4 5 -6 -7 0
1 3 -5 6 0
1 3 5 -6 0
3 -5 -6 -9 -10 -11 0
3 -5 -6 9 10 11 0
3 -5 6 -9 10 11 0
3 -5 6 9 -10 11 0
3 -5 6 9 10 -11 0
3 -5 6 9 10 11 0
3 -4 -6 -7 -11 -12 0
3 -4 -6 -7 -11 12 0
3 -4 -6 -7 11 -12 0
3 -4 -6 -7 11 12 0
3 -4 -6 7 11 12 0
3 -4 -5 -6 -7 -10 -11 -12 0
3 -4 -5 -6 -7 -10 -11 12 0
3 -4 -5 -6 -7 -10 11 -12 0
3 -4 -5 -6 -7 -10 11 12 0
3 -4 -5 -6 -7 10 -11 -12 0
3 -4 -5 -6 -7 10 -11 12 0
3 -4 -5 -6 -7 10 11 -12 0
3 -4 -5 -6 7 -10 -11 -12 0
3 -4 -5 -6 7 -10 -11 12 0
3 -4 -5 -6 7 -10 11 -12 0
3 -4 -5 -6 7 10 -11 -12 0
3 -4 -5 6 -7 10 11 12 0
3 -4 -5 6 7 -10 11 12 0
3 -4 -5 6 7 10 -11 12 0
3 -4 -5 6 7 10 11 -12 0
3 -4 5 -6 -7 -10 -11 -12 0
3 -4 5 -6 -7 -10 -11 12 0
3 -4 5 -6 -7 -10 11 -12 0
3 -4 5 -6 -7 10 -11 -12 0
3 -4 5 -6 7 -10 -11 -12 0
3 -4 5 -6 7 10 11 12 0
3 -4 5 6 -7 -10 11 12 0
3 -4 5 6 -7 10 -11 12 0
3 -4 5 6 -7 10 11 -12 0
3 -4 5 6 7 -10 -11 12 0
3 -4 5 6 7 -10 11 -12 0
3 -4 5 6 7 10 -11 -12 0
3 -4 6 -7 -11 -12 0
3 -4 6 -7 -11 12 0
3 -4 6 -7 11 -12 0
3 -4 6 7 -11 12 0
3 4 -6 -7 -11 -12 0
3 4 -6 -7 11 -12 0
3 4 -6 7 11 -12 0
3 4 -5 -6 -7 -10 -11 -12 0
3 4 -5 -6 -7 -10 -11 12 0
3 4 -5 -6 -7 -10 11 -12 0
3 4 -5 -6 -7 10 -11 -12 0
3 4 -5 -6 7 -10 -11 -12 0
3 4 -5 -6 7 10 11 12 0
3 4 -5 6 -7 -10 11 12 0
3 4 -5 6 -7 10 -11 12 0
3 4 -5 6 -7 10 11 -12 0
3 4 -5 6 7 -10 -11 12 0
3 4 -5 6 7 -10 11 -12 0
3 4 -5 6 7 10 -11 -12 0
3 4 5 -6 -7 -10 -11 -12 0
3 4 5 -6 -7 10 11 12 0
3 4 5 -6 7 -10 11 12 0
3 4 5 -6 7 10 -11 12 0
3 4 5 -6 7 10 11 -12 0
3 4 5 -6 7 10 11 12 0
3 4 5 6 -7 -10 -11 12 0
3 4 5 6 -7 -10 11 -12 0
3 4 5 6 -7 10 -11 -12 0
3 4 5 6 7 -10 -11 -12 0
3 4 6 -7 -11 -12 0
3 4 6 -7 11 12 0
3 4 6 7 -11 -12 0
3 5 -6 -9 -10 11 0
3 5 -6 -9 10 -11 0
3 5 -6 9 -10 -11 0
3 5 6 -9 -10 -11 0
5 -8 -9 -10 -13 -14 0
5 -8 -9 -10 -13 14 0
5 -8 -9 -10 13 -14 0
5 -8 -9 -10 13 14 0
5 -8 -9 10 -13 -14 0
5 -8 -9 10 -13 14 0
5 -8 -9 10 13 -14 0
5 -8 9 -10 13 14 0
5 -8 9 10 0
5 -8 9 10 -13 14 0
5 -8 9 10 13 -14 0
5 -6 -9 -10 -11 -13 -14 -15 0
5 -6 -9 -10 -11 -13 -14 15 0
5 -6 -9 -10 -11 -13 14 -15 0
5 -6 -9 -10 -11 -13 14 15 0
5 -6 -9 -10 -11 13 -14 -15 0
5 -6 -9 -10 -11 13 -14 15 0
5 -6 -9 -10 -11 13 14 -15 0
5 -6 -9 -10 11 -13 -14 -15 0
5 -6 -9 -10 11 -13 -14 15 0
5 -6 -9 -10 11 -13 14 -15 0
5 -6 -9 -10 11 13 -14 -15 0
5 -6 -9 10 -11 13 14 15 0
5 -6 -9 10 11 -13 14 15 0
5 -6 -9 10 11 13 -14 15 0
5 -6 -9 10 11 13 14 -15 0
5 -6 -7 -10 -11 -12 -14 -15 -16 0
5 -6 -7 -10 -11 -12 -14 -15 16 0
5 -6 -7 -10 -11 -12 -14 15 -16 0
5 -6 -7 -10 -11 -12 -14 15 16 0
5 -6 -7 -10 -11 -12 14 -15 -16 0
5 -6 -7 -10 -11 -12 14 -15 16 0
5 -6 -7 -10 -11 -12 14 15 -16 0
5 -6 -7 -10 -11 -12 14 15 16 0
5 -6 -7 -10 -11 12 -14 -15 -16 0
5 -6 -7 -10 -11 12 -14 -15 16 0
5 -6 -7 -10 -11 12 -14 15 -16 0
5 -6 -7 -10 -11 12 -14 15 16 0
5 -6 -7 -10 -11 12 14 -15 -16 0
5 -6 -7 -10 -11 12 14 -15 16 0
5 -6 -7 -10 -11 12 14 15 -16 0
5 -6 -7 -10 11 12 14 15 16 0
5 -6 -7 10 -11 -12 -14 -15 -16 0
5 -6 -7 10 -11 -12 -14 -15 16 0
5 -6 -7 10 -11 -12 -14 15 -16 0
5 -6 -7 10 -11 -12 -14 15 16 0
5 -6 -7 10 -11 -12 14 -15 -16 0
5 -6 -7 10 -11 -12 14 -15 16 0
5 -6 -7 10 -11 -12 14 15 -16 0
5 -6 -7 10 -11 12 -14 -15 -16 0
5 -6 -7 10 -11 12 -14 -15 16 0
5 -6 -7 10 -11 12 -14 15 -16 0
5 -6 -7 10 -11 12 14 -15 -16 0
5 -6 -7 10 11 -12 14 15 16 0
5 -6 -7 10 11 12 -14 15 16 0
5 -6 -7 10 11 12 14 -15 16 0
5 -6 -7 10 11 12 14 15 -16 0
5 -6 7 -10 -11 -12 -14 -15 -16 0
5 -6 7 -10 -11 -12 -14 -15 16 0
5 -6 7 -10 -11 -12 -14 15 -16 0
5 -6 7 -10 -11 -12 -14 15 16 0
5 -6 7 -10 -11 -12 14 -15 -16 0
5 -6 7 -10 -11 -12 14 -15 16 0
5 -6 7 -10 -11 -12 14 15 -16 0
5 -6 7 -10 -11 12 -14 -15 -16 0
5 -6 7 -10 -11 12 -14 -15 16 0
5 -6 7 -10 -11 12 -14 15 -16 0
5 -6 7 -10 -11 12 14 -15 -16 0
5 -6 7 -10 11 -12 14 15 16 0
5 -6 7 -10 11 12 -14 15 16 0
5 -6 7 -10 11 12 14 -15 16 0
5 -6 7 -10 11 12 14 15 -16 0
5 -6 7 10 -11 -12 -14 -15 -16 0
5 -6 7 10 -11 -12 -14 -15 16 0
5 -6 7 10 -11 -12 -14 15 -16 0
5 -6 7 10 -11 -12 14 -15 -16 0
5 -6 7 10 -11 12 -14 -15 -16 0
5 -6 7 10 -11 12 14 15 16 0
5 -6 7 10 11 -12 -14 15 16 0
5 -6 7 10 11 -12 14 -15 16 0
5 -6 7 10 11 -12 14 15 -16 0
5 -6 7 10 11 12 -14 -15 16 0
5 -6 7 10 11 12 -14 15 -16 0
5 -6 7 10 11 12 14 -15 -16 0
5 -6 9 -10 -11 -13 -14 -15 0
5 -6 9 -10 -11 -13 -14 15 0
5 -6 9 -10 -11 -13 14 -15 0
5 -6 9 -10 -11 13 -14 -15 0
5 -6 9 -10 11 -13 -14 -15 0
5 -6 9 -10 11 13 14 15 0
5 -6 9 10 -11 -13 14 15 0
5 -6 9 10 -11 13 -14 15 0
5 -6 9 10 -11 13 14 -15 0
5 -6 9 10 11 -13 -14 15 0
5 -6 9 10 11 -13 14 -15 0
5 -6 9 10 11 13 -14 -15 0
5 6 -9 -10 -11 -13 -14 -15 0
5 6 -9 -10 -11 -13 -14 15 0
5 6 -9 -10 -11 -13 14 -15 0
5 6 -9 -10 -11 13 -14 -15 0
5 6 -9 -10 11 -13 -14 -15 0
5 6 -9 -10 11 13 14 15 0
5 6 -9 10 -11 -13 14 15 0
5 6 -9 10 -11 13 -14 15 0
5 6 -9 10 -11 13 14 -15 0
5 6 -9 10 11 -13 -14 15 0
5 6 -9 10 11 -13 14 -15 0
5 6 -9 10 11 13 -14 -15 0
5 6 -7 -10 -11 -12 -14 -15 -16 0
5 6 -7 -10 -11 -12 -14 -15 16 0
5 6 -7 -10 -11 -12 -14 15 -16 0
5 6 -7 -10 -11 -12 -14 15 16 0
5 6 -7 -10 -11 -12 14 -15 -16 0
5 6 -7 -10 -11 -12 14 -15 16 0
5 6 -7 -10 -11 -12 14 15 -16 0
5 6 -7 -10 -11 12 -14 -15 -16 0
5 6 -7 -10 -11 12 -14 -15 16 0
5 6 -7 -10 -11 12 -14 15 -16 0
5 6 -7 -10 -11 12 14 -15 -16 0
5 6 -7 -10 11 -12 14 15 16 0
5 6 -7 -10 11 12 -14 15 16 0
5 6 -7 -10 11 12 14 -15 16 0
5 6 -7 -10 11 12 14 15 -16 0
5 6 -7 10 -11 -12 -14 -15 -16 0
5 6 -7 10 -11 -12 -14 -15 16 0
5 6 -7 10 -11 -12 -14 15 -16 0
5 6 -7 10 -11 -12 14 -15 -16 0
5 6 -7 10 -11 12 -14 -15 -16 0
5 6 -7 10 -11 12 14 15 16 0
5 6 -7 10 11 -12 -14 15 16 0
5 6 -7 10 11 -12 14 -15 16 0
5 6 -7 10 11 -12 14 15 -16 0
5 6 -7 10 11 12 -14 -15 16 0
5 6 -7 10 11 12 -14 15 -16 0
5 6 -7 10 11 12 14 -15 -16 0
5 6 7 -10 -11 -12 -14 -15 -16 0
5 6 7 -10 -11 -12 -14 -15 16 0
5 6 7 -10 -11 -12 -14 15 -16 0
5 6 7 -10 -11 -12 14 -15 -16 0
5 6 7 -10 -11 12 -14 -15 -16 0
5 6 7 -10 -11 12 14 15 16 0
5 6 7 -10 11 -12 -14 15 16 0
5 6 7 -10 11 -12 14 -15 16 0
5 6 7 -10 11 -12 14 15 -16 0
5 6 7 -10 11 12 -14 -15 16 0
5 6 7 -10 11 12 -14 15 -16 0
5 6 7 -10 11 12 14 -15 -16 0
5 6 7 10 -11 -12 -14 -15 -16 0
5 6 7 10 -11 -12 14 15 16 0
5 6 7 10 -11 12 -14 15 16 0
5 6 7 10 -11 12 14 -15 16 0
5 6 7 10 -11 12 14 15 -16 0
5 6 7 10 -11 12 14 15 16 0
5 6 7 10 11 -12 -14 -15 16 0
5 6 7 10 11 -12 -14 15 -16 0
5 6 7 10 11 -12 14 -15 -16 0
5 6 7 10 11 12 -14 -15 -16 0
5 6 9 -10 -11 -13 -14 -15 0
5 6 9 -10 -11 13 14 15 0
5 6 9 -10 11 -13 14 15 0
5 6 9 -10 11 13 -14 15 0
5 6 9 -10 11 13 14 -15 0
5 6 9 -10 11 13 14 15 0
5 6 9 10 -11 -13 -14 15 0
5 6 9 10 -11 -13 14 -15 0
5 6 9 10 -11 13 -14 -15 0
5 6 9 10 11 -13 -14 -15 0
5 8 -9 -10 -13 -14 0
5 8 -9 -10 -13 14 0
5 8 -9 -10 13 -14 0
5 8 -9 10 0
5 8 -9 10 -13 -14 0
5 8 9 -10 0
5 8 9 -10 -13 14 0
5 8 9 -10 13 -14 0
5 8 9 10 -13 -14 0
6 -7 -11 -12 -15 -16 0
6 -7 -11 -12 -15 16 0
6 -7 -11 -12 15 -16 0
6 -7 -11 -12 15 16 0
6 -7 -11 12 15 16 0
6 -7 11 -12 -15 -16 0
6 -7 11 -12 -15 16 0
6 -7 11 -12 15 -16 0
6 -7 11 12 -15 16 0
6 7 -11 -12 -15 -16 0
6 7 -11 -12 15 -16 0
6 7 -11 12 15 -16 0
6 7 11 -12 -15 -16 0
6 7 11 -12 15 16 0
6 7 11 12 -15 -16 0
8 -9 -10 -13 -14 -17 0
8 -9 -10 -13 -14 17 0
8 -9 -10 -13 14 -17 0
8 -9 -10 -13 14 17 0
8 -9 10 -13 -14 -17 0
8 -9 10 -13 -14 17 0
8 -9 10 13 14 -17 0
8 9 -13 0
8 9 -10 -13 -14 -17 0
8 9 -10 -13 -14 17 0
8 9 -10 13 14 -17 0
8 9 10 -13 14 -17 0
8 9 10 -13 14 17 0
8 9 10 13 -14 -17 0
9 -10 -11 -13 -14 -15 -17 -18 0
9 -10 -11 -13 -14 -15 -17 18 0
9 -10 -11 -13 -14 -15 17 -18 0
9 -10 -11 -13 -14 -15 17 18 0
9 -10 -11 -13 -14 15 -17 -18 0
9 -10 -11 -13 -14 15 -17 18 0
9 -10 -11 -13 -14 15 17 -18 0
9 -10 -11 -13 -14 15 17 18 0
9 -10 -11 -13 14 15 17 18 0
9 -10 -11 13 -14 -15 -17 -18 0
9 -10 -11 13 -14 -15 -17 18 0
9 -10 -11 13 -14 -15 17 -18 0
9 -10 -11 13 -14 -15 17 18 0
9 -10 -11 13 -14 15 -17 -18 0
9 -10 -11 13 -14 15 -17 18 0
9 -10 -11 13 -14 15 17 -18 0
9 -10 -11 13 14 -15 17 18 0
9 -10 -11 13 14 15 -17 18 0
9 -10 -11 13 14 15 17 -18 0
9 -10 11 -13 -14 -15 -17 -18 0
9 -10 11 -13 -14 -15 -17 18 0
9 -10 11 -13 -14 -15 17 -18 0
9 -10 11 -13 -14 -15 17 18 0
9 -10 11 -13 -14 15 -17 -18 0
9 -10 11 -13 -14 15 -17 18 0
9 -10 11 -13 -14 15 17 -18 0
9 -10 11 -13 14 -15 17 18 0
9 -10 11 -13 14 15 -17 18 0
9 -10 11 -13 14 15 17 -18 0
9 -10 11 13 -14 -15 -17 -18 0
9 -10 11 13 -14 -15 -17 18 0
9 -10 11 13 -14 -15 17 -18 0
9 -10 11 13 -14 15 -17 -18 0
9 -10 11 13 14 -15 -17 18 0
9 -10 11 13 14 -15 17 -18 0
9 -10 11 13 14 15 -17 -18 0
9 10 -11 -13 -14 -15 -17 -18 0
9 10 -11 -13 -14 -15 -17 18 0
9 10 -11 -13 -14 -15 17 -18 0
9 10 -11 -13 -14 -15 17 18 0
9 10 -11 -13 -14 15 -17 -18 0
9 10 -11 -13 -14 15 -17 18 0
9 10 -11 -13 -14 15 17 -18 0
9 10 -11 -13 14 -15 17 18 0
9 10 -11 -13 14 15 -17 18 0
9 10 -11 -13 14 15 17 -18 0
9 10 -11 13 -14 -15 -17 -18 0
9 10 -11 13 -14 -15 -17 18 0
9 10 -11 13 -14 -15 17 -18 0
9 10 -11 13 -14 15 -17 -18 0
9 10 -11 13 14 -15 -17 18 0
9 10 -11 13 14 -15 17 -18 0
9 10 -11 13 14 15 -17 -18 0
9 10 11 -13 -14 -15 -17 -18 0
9 10 11 -13 -14 -15 -17 18 0
9 10 11 -13 -14 -15 17 -18 0
9 10 11 -13 -14 15 -17 -18 0
9 10 11 -13 14 -15 -17 18 0
9 10 11 -13 14 -15 17 -18 0
9 10 11 -13 14 15 -17 -18 0
9 10 11 13 -14 -15 -17 -18 0
9 10 11 13 -14 15 17 18 0
9 10 11 13 14 -15 -17 -18 0
10 -11 -12 -14 -15 -16 -17 -18 -19 0
10 -11 -12 -14 -15 -16 -17 -18 19 0
10 -11 -12 -14 -15 -16 -17 18 -19 0
10 -11 -12 -14 -15 -16 -17 18 19 0
10 -11 -12 -14 -15 -16 17 -18 -19 0
10 -11 -12 -14 -15 -16 17 -18 19 0
10 -11 -12 -14 -15 -16 17 18 -19 0
10 -11 -12 -14 -15 -16 17 18 19 0
10 -11 -12 -14 -15 16 -17 -18 -19 0
10 -11 -12 -14 -15 16 -17 -18 19 0
10 -11 -12 -14 -15 16 -17 18 -19 0
10 -11 -12 -14 -15 16 -17 18 19 0
10 -11 -12 -14 -15 16 17 -18 -19 0
10 -11 -12 -14 -15 16 17 -18 19 0
10 -11 -12 -14 -15 16 17 18 -19 0
10 -11 -12 -14 15 16 17 18 19 0
10 -11 -12 14 -15 -16 -17 -18 -19 0
10 -11 -12 14 -15 -16 -17 -18 19 0
10 -11 -12 14 -15 -16 -17 18 -19 0
10 -11 -12 14 -15 -16 -17 18 19 0
10 -11 -12 14 -15 -16 17 -18 -19 0
10 -11 -12 14 -15 -16 17 -18 19 0
10 -11 -12 14 -15 -16 17 18 -19 0
10 -11 -12 14 -15 16 -17 -18 -19 0
10 -11 -12 14 -15 16 -17 -18 19 0
10 -11 -12 14 -15 16 -17 18 -19 0
10 -11 -12 14 -15 16 17 -18 -19 0
10 -11 -12 14 15 -16 17 18 19 0
10 -11 -12 14 15 16 -17 18 19 0
10 -11 -12 14 15 16 17 -18 19 0
10 -11 -12 14 15 16 17 18 -19 0
10 -11 12 -14 -15 -16 -17 -18 -19 0
10 -11 12 -14 -15 -16 -17 -18 19 0
10 -11 12 -14 -15 -16 -17 18 -19 0
10 -11 12 -14 -15 -16 -17 18 19 0
10 -11 12 -14 -15 -16 17 -18 -19 0
10 -11 12 -14 -15 -16 17 -18 19 0
10 -11 12 -14 -15 -16 17 18 -19 0
10 -11 12 -14 -15 16 -17 -18 -19 0
10 -11 12 -14 -15 16 -17 -18 19 0
10 -11 12 -14 -15 16 -17 18 -19 0
10 -11 12 -14 -15 16 17 -18 -19 0
10 -11 12 -14 15 -16 17 18 19 0
10 -11 12 -14 15 16 -17 18 19 0
10 -11 12 -14 15 16 17 -18 19 0
10 -11 12 -14 15 16 17 18 -19 0
10 -11 12 14 -15 -16 -17 -18 -19 0
10 -11 12 14 -15 -16 -17 -18 19 0
10 -11 12 14 -15 -16 -17 18 -19 0
10 -11 12 14 -15 -16 17 -18 -19 0
10 -11 12 14 -15 16 -17 -18 -19 0
10 -11 12 14 -15 16 17 18 19 0
10 -11 12 14 15 -16 -17 18 19 0
10 -11 12 14 15 -16 17 -18 19 0
10 -11 12 14 15 -16 17 18 -19 0
10 -11 12 14 15 16 -17 -18 19 0
10 -11 12 14 15 16 -17 18 -19 0
10 -11 12 14 15 16 17 -18 -19 0
10 11 -12 -14 -15 -16 -17 -18 -19 0
10 11 -12 -14 -15 -16 -17 -18 19 0
10 11 -12 -14 -15 -16 -17 18 -19 0
10 11 -12 -14 -15 -16 -17 18 19 0
10 11 -12 -14 -15 -16 17 -18 -19 0
10 11 -12 -14 -15 -16 17 -18 19 0
10 11 -12 -14 -15 -16 17 18 -19 0
10 11 -12 -14 -15 16 -17 -18 -19 0
10 11 -12 -14 -15 16 -17 -18 19 0
10 11 -12 -14 -15 16 -17 18 -19 0
10 11 -12 -14 -15 16 17 -18 -19 0
10 11 -12 -14 15 -16 17 18 19 0
10 11 -12 -14 15 16 -17 18 19 0
10 11 -12 -14 15 16 17 -18 19 0
10 11 -12 -14 15 16 17 18 -19 0
10 11 -12 14 -15 -16 -17 -18 -19 0
10 11 -12 14 -15 -16 -17 -18 19 0
10 11 -12 14 -15 -16 -17 18 -19 0
10 11 -12 14 -15 -16 17 -18 -19 0
10 11 -12 14 -15 16 -17 -18 -19 0
10 11 -12 14 -15 16 17 18 19 0
10 11 -12 14 15 -16 -17 18 19 0
10 11 -12 14 15 -16 17 -18 19 0
10 11 -12 14 15 -16 17 18 -19 0
10 11 -12 14 15 16 -17 -18 19 0
10 11 -12 14 15 16 -17 18 -19 0
10 11 -12 14 15 16 17 -18 -19 0
10 11 12 -14 -15 -16 -17 -18 -19 0
10 11 12 -14 -15 -16 -17 -18 19 0
10 11 12 -14 -15 -16 -17 18 -19 0
10 11 12 -14 -15 -16 17 -18 -19 0
10 11 12 -14 -15 16 -17 -18 -19 0
10 11 12 -14 -15 16 17 18 19 0
10 11 12 -14 15 -16 -17 18 19 0
10 11 12 -14 15 -16 17 -18 19 0
10 11 12 -14 15 -16 17 18 -19 0
10 11 12 -14 15 16 -17 -18 19 0
10 11 12 -14 15 16 -17 18 -19 0
10 11 12 -14 15 16 17 -18 -19 0
10 11 12 14 -15 -16 -17 -18 -19 0
10 11 12 14 -15 -16 17 18 19 0
10 11 12 14 -15 16 -17 18 19 0
10 11 12 14 -15 16 17 -18 19 0
10 11 12 14 -15 16 17 18 -19 0
10 11 12 14 -15 16 17 18 19 0
10 11 12 14 15 -16 -17 -18 19 0
10 11 12 14 15 -16 -17 18 -19 0
10 11 12 14 15 -16 17 -18 -19 0
10 11 12 14 15 16 -17 -18 -19 0
11 -12 -15 -16 -18 -19 0
11 -12 -15 -16 -18 19 0
11 -12 -15 -16 18 -19 0
11 -12 -15 -16 18 19 0
11 -12 -15 16 18 19 0
11 -12 15 -16 -18 -19 0
11 -12 15 -16 -18 19 0
11 -12 15 -16 18 -19 0
11 -12 15 16 -18 19 0
11 12 -15 -16 -18 -19 0
11 12 -15 -16 18 -19 0
11 12 -15 16 18 -19 0
11 12 15 -16 -18 -19 0
11 12 15 -16 18 19 0
11 12 15 16 -18 -19 0
13 -14 -15 -17 -18 -20 0
13 -14 -15 -17 -18 20 0
13 -14 -15 -17 18 -20 0
13 -14 -15 -17 18 20 0
13 -14 15 -17 -18 -20 0
13 -14 15 -17 -18 20 0
13 -14 15 17 18 -20 0
13 14 -15 -17 -18 -20 0
13 14 -15 -17 -18 20 0
13 14 -15 17 18 -20 0
13 14 15 -17 18 -20 0
13 14 15 -17 18 20 0
13 14 15 17 -18 -20 0
14 -15 -16 -17 -18 -19 -20 -21 0
14 -15 -16 -17 -18 -19 -20 21 0
14 -15 -16 -17 -18 -19 20 -21 0
14 -15 -16 -17 -18 -19 20 21 0
14 -15 -16 -17 -18 19 -20 -21 0
14 -15 -16 -17 -18 19 -20 21 0
14 -15 -16 -17 -18 19 20 -21 0
14 -15 -16 -17 -18 19 20 21 0
14 -15 -16 -17 18 19 20 21 0
14 -15 -16 17 -18 -19 -20 -21 0
14 -15 -16 17 -18 -19 -20 21 0
14 -15 -16 17 -18 -19 20 -21 0
14 -15 -16 17 -18 -19 20 21 0
14 -15 -16 17 -18 19 -20 -21 0
14 -15 -16 17 -18 19 -20 21 0
14 -15 -16 17 -18 19 20 -21 0
14 -15 -16 17 18 -19 20 21 0
14 -15 -16 17 18 19 -20 21 0
14 -15 -16 17 18 19 20 -21 0
14 -15 16 -17 -18 -19 -20 -21 0
14 -15 16 -17 -18 -19 -20 21 0
14 -15 16 -17 -18 -19 20 -21 0
14 -15 16 -17 -18 -19 20 21 0
14 -15 16 -17 -18 19 -20 -21 0
14 -15 16 -17 -18 19 -20 21 0
14 -15 16 -17 -18 19 20 -21 0
14 -15 16 -17 18 -19 20 21 0
14 -15 16 -17 18 19 -20 21 0
14 -15 16 -17 18 19 20 -21 0
14 -15 16 17 -18 -19 -20 -21 0
14 -15 16 17 -18 -19 -20 21 0
14 -15 16 17 -18 -19 20 -21 0
14 -15 16 17 -18 19 -20 -21 0
14 -15 16 17 18 -19 -20 21 0
14 -15 16 17 18 -19 20 -21 0
14 -15 16 17 18 19 -20 -21 0
14 15 -16 -17 -18 -19 -20 -21 0
14 15 -16 -17 -18 -19 -20 21 0
14 15 -16 -17 -18 -19 20 -21 0
14 15 -16 -17 -18 -19 20 21 0
14 15 -16 -17 -18 19 -20 -21 0
14 15 -16 -17 -18 19 -20 21 0
14 15 -16 -17 -18 19 20 -21 0
14 15 -16 -17 18 -19 20 21 0
14 15 -16 -17 18 19 -20 21 0
14 15 -16 -17 18 19 20 -21 0
14 15 -16 17 -18 -19 -20 -21 0
14 15 -16 17 -18 -19 -20 21 0
14 15 -16 17 -18 -19 20 -21 0
14 15 -16 17 -18 19 -20 -21 0
14 15 -16 17 18 -19 -20 21 0
14 15 -16 17 18 -19 20 -21 0
14 15 -16 17 18 19 -20 -21 0
14 15 16 -17 -18 -19 -20 -21 0
14 15 16 -17 -18 -19 -20 21 0
14 15 16 -17 -18 -19 20 -21 0
14 15 16 -17 -18 19 -20 -21 0
14 15 16 -17 18 -19 -20 21 0
14 15 16 -17 18 -19 20 -21 0
14 15 16 -17 18 19 -20 -21 0
14 15 16 17 -18 -19 -20 -21 0
14 15 16 17 -18 19 20 21 0
14 15 16 17 18 -19 -20 -21 0
15 -16 -18 -19 -20 -21 0
15 -16 -18 -19 -20 21 0
15 -16 -18 -19 20 -21 0
15 -16 -18 -19 20 21 0
15 -16 -18 19 20 21 0
15 -16 18 -19 -20 -21 0
15 -16 18 -19 -20 21 0
15 -16 18 -19 20 -21 0
15 -16 18 19 -20 21 0
15 16 -18 -19 -20 -21 0
15 16 -18 -19 20 -21 0
15 16 -18 19 20 -21 0
15 16 18 -19 -20 -21 0
15 16 18 -19 20 21 0
15 16 18 19 -20 -21 0
17 -18 -19 -20 -21 -22 0
17 -18 -19 -20 -21 22 0
17 -18 -19 -20 21 -22 0
17 -18 -19 -20 21 22 0
17 -18 19 -20 -21 -22 0
17 -18 19 -20 -21 22 0
17 -18 19 20 21 -22 0
17 18 -19 -20 -21 -22 0
17 18 -19 -20 -21 22 0
17 18 -19 20 21 -22 0
17 18 19 -20 21 -22 0
17 18 19 -20 21 22 0
17 18 19 20 -21 -22 0
18 -19 -20 -21 -22 0
18 -19 -20 -21 22 0
18 -19 -20 21 22 0
18 -19 20 -21 -22 0
18 -19 20 -21 22 0
18 19 -20 -21 -22 0
18 19 -20 21 -22 0
18 19 20 -21 -22 0
20 -21 -22 0
1 2 -3 -4 -5 6 7 -8 9 -10 -11 -12 13 14 15 16 -17 -18 -19 20 21 -22 0
1 2 -3 -4 -5 6 7 -8 9 -10 11 -12 13 -14 15 -16 -17 18 19 -20 -21 22 0
1 2 -3 -4 -5 6 7 -8 9 -10 11 -12 -13 14 -15 16 17 -18 19 20 -21 22 0
1 2 -3 -4 -5 6 7 8 9 -10 11 -12 13 -14 15 -16 -17 18 19 -20 -21 22 0
1 -2 -3 4 5 -6 7 8 -9 -10 11 12 13 14 -15 -16 -17 18 19 -20 -21 22 0
1 2 -3 -4 5 -6 7 8 -9 -10 11 12 13 14 -15 -16 -17 18 19 -20 -21 22 0
1 -2 -3 4 5 -6 7 8 -9 -10 11 -12 13 14 -15 16 17 -18 19 20 -21 22 0
1 2 -3 -4 -5 6 7 8 -9 10 -11 -12 13 14 -15 16 17 -18 19 20 -21 22 0
1 2 -3 -4 -5 6 7 -8 9 -10 -11 -12 -13 14 15 16 17 -18 19 -20 21 22 0
1 2 -3 -4 -5 6 7 -8 9 -10 -11 12 13 14 15 16 -17 -18 -19 20 21 -22 0
1 2 -3 -4 -5 6 7 8 -9 10 -11 12 13 14 -15 16 17 -18 -19 20 21 -22 0
1 2 -3 -4 -5 6 7 -8 9 -10 -11 -12 13 14 15 16 -17 -18 19 -20 21 22 0
1 2 -3 -4 -5 6 7 -8 9 -10 -11 12 13 14 -15 16 -17 18 19 -20 -21 22 0
1 2 -3 -4 -5 6 7 8 -9 10 -11 -12 13 14 -15 16 17 -18 19 20 21 22 0
1 2 -3 -4 5 -6 7 8 -9 -10 11 12 13 14 -15 -16 17 -18 19 20 21 22 0
1 -2 -3 4 5 -6 7 8 -9 -10 11 12 13 14 -15 -16 17 -18 19 20 21 22 0
1 2 -3 -4 -5 6 7 -8 9 10 -11 -12 -13 14 -15 16 -17 18 19 20 21 -22 0
1 2 -3 -4 -5 6 7 -8 9 -10 11 -12 13 -14 15 -16 17 18 19 20 21 -22 0
1 2 -3 -4 -5 6 7 -8 9 -10 11 -12 -13 14 -15 16 17 -18 19 20 21 22 0
1 -2 -3 4 5 -6 7 8 -9 -10 11 -12 13 14 -15 16 17 -18 19 20 21 22 0
1 2 -3 -4 -5 6 7 -8 9 -10 -11 12 13 14 -15 16 -17 18 19 20 21 -22 0
1 2 -3 -4 -5 6 7 -8 9 -10 -11 12 13 14 15 16 -17 -18 19 -20 21 22 0
1 2 -3 -4 -5 6 7 -8 9 -10 11 -12 13 -14 15 -16 17 18 19 20 21 22 0
1 2 -3 -4 -5 6 7 -8 9 10 -11 -12 -13 14 -15 16 -17 18 19 20 21 22 0
1 2 -3 -4 -5 6 7 8 9 -10 11 -12 13 -14 15 -16 17 18 19 20 21 -22 0
1 2 -3 -4 -5 6 7 -8 9 10 -11 12 -13 14 -15 16 -17 18 19 20 21 -22 0
1 2 -3 -4 -5 6 7 8 9 -10 11 -12 13 -14 15 -16 17 18 19 20 21 22 0
1 2 -3 -4 -5 6 7 -8 9 -10 -11 12 13 14 -15 16 -17 18 19 20 21 22 0
1 -2 -3 4 5 -6 7 8 9 10 11 -12 13 14 15 16 -17 -18 -19 20 21 -22 0
1 2 -3 -4 5 -6 7 8 9 10 11 -12 13 14 15 16 -17 -18 -19 20 21 -22 0
1 2 3 4 5 6 7 -8 9 -10 -11 12 -13 14 -15 -16 17 18 19 -20 -21 22 0
1 2 -3 -4 -5 6 7 -8 9 10 -11 12 -13 14 -15 16 -17 18 19 20 21 22 0
1 2 -3 -4 5 -6 7 8 9 10 11 12 13 14 -15 16 17 -18 -19 20 21 -22 0
1 -2 -3 4 5 -6 7 8 -9 -10 11 12 13 14 15 16 17 18 19 20 -21 22 0
1 2 -3 -4 5 -6 7 8 -9 -10 11 12 13 14 15 16 17 18 19 20 -21 22 0
1 2 -3 -4 5 -6 7 8 9 10 11 12 13 -14 15 16 17 -18 19 -20 21 22 0
1 -2 -3 4 5 -6 7 8 -9 -10 11 12 13 14 15 16 17 18 19 20 21 -22 0
1 2 3 4 5 6 7 -8 9 -10 11 12 -13 14 -15 16 17 -18 -19 20 21 -22 0
1 2 3 4 5 6 7 8 -9 -10 11 12 13 14 -15 16 17 -18 -19 20 21 -22 0
1 2 -3 -4 5 -6 7 8 -9 -10 11 12 13 14 15 16 17 18 19 20 21 -22 0
1 2 3 4 5 6 7 -8 9 -10 11 12 -13 14 -15 16 17 -18 19 20 -21 22 0
1 2 3 4 5 6 7 8 -9 -10 11 12 13 14 -15 16 17 -18 19 20 -21 22 0
1 2 -3 -4 5 -6 7 8 9 10 11 12 13 -14 15 16 17 -18 19 20 21 22 0
1 -2 -3 4 5 -6 7 8 -9 -10 11 12 13 14 15 16 17 18 19 20 21 22 0
1 -2 -3 4 5 -6 7 8 9 10 11 -12 13 14 15 16 17 18 19 20 -21 22 0
1 2 3 4 5 6 7 8 -9 -10 11 12 13 14 -15 16 -17 18 19 -20 -21 22 0
1 2 -3 -4 5 -6 7 8 -9 -10 11 12 13 14 15 16 17 18 19 20 21 22 0
1 2 -3 -4 5 -6 7 8 9 10 11 -12 13 14 15 16 17 18 19 20 -21 22 0
1 2 3 4 5 6 -7 8 9 10 11 -12 13 14 15 16 -17 -18 -19 20 21 -22 0
1 2 -3 -4 5 -6 7 8 9 10 11 12 13 14 15 16 -17 -18 19 -20 21 22 0
1 2 -3 -4 5 -6 7 8 9 10 11 -12 13 14 15 16 17 18 19 20 21 -22 0
1 -2 -3 4 5 -6 7 8 9 10 11 -12 13 14 15 16 17 18 19 20 21 -22 0
1 2 3 4 5 6 7 8 9 10 11 -12 13 14 -15 16 17 -18 -19 20 21 -22 0
1 2 3 4 5 6 7 8 -9 -10 11 12 13 14 -15 16 -17 18 19 20 21 -22 0
1 2 3 4 5 6 -7 8 9 10 -11 12 13 14 -15 16 17 18 -19 20 21 22 0
1 2 3 4 5 6 7 8 9 10 11 -12 13 14 -15 16 17 -18 19 20 -21 22 0
1 2 3 4 5 6 7 8 -9 -10 11 12 13 14 -15 16 17 -18 19 20 21 22 0
1 2 -3 -4 5 -6 7 8 9 10 11 12 13 14 15 16 17 18 19 20 -21 22 0
1 2 -3 -4 5 -6 7 8 9 10 11 -12 13 14 15 16 17 18 19 20 21 22 0
1 -2 -3 4 5 -6 7 8 9 10 11 -12 13 14 15 16 17 18 19 20 21 22 0
1 2 3 4 5 6 7 -8 9 -10 11 12 -13 14 -15 16 17 -18 19 20 21 22 0
1 2 3 4 5 6 -7 8 9 10 -11 12 13 14 15 -16 17 18 19 20 -21 22 0
1 2 -3 -4 5 -6 7 8 9 10 11 12 13 14 15 16 17 18 19 20 21 -22 0
1 2 3 4 5 6 7 8 9 10 11 12 13 14 -15 16 17 -18 -19 20 21 -22 0
1 2 3 4 5 6 7 8 -9 -10 11 12 13 14 -15 16 -17 18 19 20 21 22 0
1 2 3 4 5 6 -7 8 9 10 -11 12 13 14 15 -16 17 18 19 20 21 -22 0
1 2 3 4 5 6 -7 8 9 10 11 -12 13 14 15 16 17 18 19 20 -21 22 0
1 2 3 4 5 6 7 8 9 10 11 12 13 -14 -15 16 17 -18 19 20 21 22 0
1 2 3 4 5 6 7 8 9 10 11 -12 13 14 -15 16 17 18 -19 20 21 22 0
1 2 3 4 5 6 7 8 9 10 11 12 13 14 15 -16 17 -18 19 20 -21 22 0
1 2 3 4 5 6 7 8 9 10 11 -12 13 14 -15 16 17 -18 19 20 21 22 0
1 2 3 4 5 6 7 8 9 10 11 -12 13 14 15 -16 17 18 19 20 -21 22 0
1 2 3 4 5 6 -7 8 9 10 -11 12 13 14 15 -16 17 18 19 20 21 22 0
1 2 -3 -4 5 -6 7 8 9 10 11 12 13 14 15 16 17 18 19 20 21 22 0
1 2 3 4 5 6 -7 8 9 10 11 -12 13 14 15 16 17 18 19 20 21 -22 0
1 2 3 4 5 6 7 8 9 10 11 12 13 -14 15 16 17 -18 19 -20 21 22 0
1 2 3 4 5 6 7 8 9 10 11 -12 13 14 15 -16 17 18 19 20 21 -22 0
1 2 3 4 5 6 -7 8 9 10 11 -12 13 14 15 16 17 18 19 20 21 22 0
1 2 3 4 5 6 7 8 9 10 11 -12 13 14 15 -16 17 18 19 20 21 22 0
1 2 3 4 5 6 7 8 9 10 11 12 13 -14 15 16 17 -18 19 20 21 22 0
1 2 3 4 5 6 7 8 9 10 11 12 13 14 15 16 -17 -18 19 -20 21 22 0
1 2 3 4 5 6 7 8 9 10 11 12 13 14 15 -16 17 18 -19 20 21 22 0
1 2 3 4 5 6 7 8 9 10 11 12 13 14 15 16 17 18 19 20 -21 22 0
1 2 3 4 5 6 7 8 9 10 11 12 13 14 15 16 17 18 19 20 21 -22 0
1 2 3 4 5 6 7 8 9 10 11 12 13 14 15 16 17 18 19 20 21 22 0
